LAMMPS (9 Jan 2009)
# polymer simulation

units		lj
boundary	p p p
dimension	3

atom_style	full
neighbor	0.3 bin
neigh_modify	delay 5

read_data	data.polymer		# load volume dimensions, masses, atoms, and bonds
  1 = max bonds/atom
  orthogonal box = (0 0 0) to (12.5992 12.5992 12.5992)
  1 by 1 by 1 processor grid
  16 atoms
  7 bonds
  2 = max # of 1-2 neighbors
  2 = max # of 1-3 neighbors
  4 = max # of 1-4 neighbors
  6 = max # of special neighbors

pair_style	lj/cut/coul/long 1.12246204830937 5 # LJ_cutoff=2^{1/6}  [ coulomb_cutoff ]
pair_coeff	* * 1.0 1.0		# < atom_type1 atom_type2 epsilon sigma [ LJ_cutoff coulomb_cutoff ] >
pair_modify	shift yes		# LJ interactions shifted to zero
kspace_style	ewald 1.0e-4		# desired accuracy
# LAMMPS coulombic energy is (q1 q2) / (\eps r)
# bjerrum length is (\lambda_B = 3)
# temperature is (k T = 1.2)
# so dielectric is (1 / (1.2 * 3))
dielectric	0.2777777777777

bond_style	fene
bond_coeff	* 7 2 0 0		# < bond_type K R0 fene_epsilon fene_sigma >
special_bonds	lj/coul 1.0 1.0 1.0  	# turn on regular interactions between all monomers (even bonded ones)
  2 = max # of 1-2 neighbors
  2 = max # of special neighbors

# apply newtons equations
fix		1 all nve
fix		2 all langevin 1.2 1.2 10.0 699483 # < ID group-ID langevin Tstart Tstop damp seed [keyword values ... ] >
#fix		3 all setforce NULL NULL 0.0	   # enforce 2d

# run
timestep	0.003
thermo		100				# output thermodynamic quantities every 1000 steps
dump		1 all atom 100 dump.polymer	# < ID group-ID style every_N_timesteps file args >
dump_modify	1 image yes scale no

run		50000
Ewald initialization ...
  G vector = 0.54631
  vectors: actual 1d max = 618 6 1098
Memory usage per processor = 1.97906 Mbytes
Step Temp E_pair E_mol TotEng Press 
       0            0   0.69036039    1.7620527    2.4524131  0.075286355 
     100   0.66412755  -0.53259782    2.1497088    2.5510403 -0.002381735 
     200   0.69486304  -0.79488771    2.4286944    2.6109579 -0.0050258011 
     300   0.72748021  -0.80058424    2.3655804    2.5880152 -0.0018870021 
     400      0.67531  -0.46790021    2.2514881    2.7332426 -0.0044172479 
     500   0.78676507  -0.56161183    2.1770925    2.7218691 0.0056039937 
     600   0.83570415  -0.64755032    2.2920125    2.8196711 -0.0054308403 
     700   0.90286927  -0.52845506    2.1770605    2.9182654  0.002308845 
     800   0.92924446  -0.37600921    2.0444385    2.9751793 0.0026660559 
     900   0.93570593  -0.61254527    2.2984344    3.0017256 -0.0079019816 
    1000     1.087448  -0.66580729    2.1374038    3.0008204 0.0021554551 
    1100   0.98852431  -0.65637062    2.4529625    3.1867042   0.00336957 
    1200    1.1244307  -0.48988112    2.1270827    3.2184323 0.0055365239 
    1300   0.93112122  -0.50569275    2.3478222    3.1515187 -0.0027486034 
    1400   0.91148104  -0.28313449    2.2822025    3.2808382 0.0077038836 
    1500    1.0346113  -0.32775867     2.221194    3.3483574 0.0038397405 
    1600   0.86562193  -0.34217064    2.2460029    3.1211131 0.0011031801 
    1700    1.0450722  -0.34733808    2.1768663    3.2991611   0.01361126 
    1800    1.0075339  -0.27191743    2.2839564    3.4288836 0.0077113397 
    1900    1.1125463  -0.36452541    2.2690476    3.4690404 -0.0024204537 
    2000    1.2276624  -0.50360327    2.3582567    3.5810536 0.0012046221 
    2100    1.3827853   -0.5796723     2.378558    3.7434276 0.0083348347 
    2200    1.3108112  -0.71441377     2.617245    3.7461596 -0.0017361878 
    2300    1.3136663  -0.17472329    2.1254765    3.7980964  0.012981603 
    2400    1.1738592  -0.30861602    2.3257533    3.6678768 0.0031097575 
    2500    1.1098767  -0.48554257    2.4803716    3.5555931 -0.0020585498 
    2600    1.0614451  -0.40463349    2.4104903     3.498514 0.0025428413 
    2700    1.1384819  -0.26672756    2.1351682    3.4694308 0.0023134017 
    2800     1.147566     -0.20883    2.2186125    3.6235472  0.013260021 
    2900    1.0009037   -0.4557379    2.3875072    3.3392902 -0.0063565071 
    3000      1.04191  -0.34909114    2.2962521     3.412347 0.0012553043 
    3100    1.2036083  -0.71901639      2.51125    3.4848078 -0.0052511643 
    3200    1.2123206  -0.39337003    2.1906144    3.5020702 0.0044580326 
    3300      1.24801  -0.26988515    2.1719553    3.6570842 0.0033385828 
    3400    1.1787257  -0.27463183    2.1745874    3.5575386 0.0087176299 
    3500    1.3009137  -0.67225923    2.3881838    3.5453345 -0.0036258505 
    3600    1.3355204  -0.78407197    2.3087963    3.4027998 -0.0033070077 
    3700    1.1618828   -0.7330016    2.4218583    3.3227544 -0.0023859315 
    3800    1.0939516  -0.40004412    2.0556752    3.1940005 0.0044110769 
    3900   0.96462933  -0.46204803    2.3435737    3.2380356 -0.00012934266 
    4000   0.89834016  -0.19988072    2.1713092    3.2347194 -0.0010559829 
    4100   0.76010235 -0.060911555    2.2763573    3.2843397 0.0032606683 
    4200    0.9226497  -0.38212834    2.3945343    3.3098821 -0.0036461467 
    4300      1.17494   -0.5930299    2.4087017    3.4679312 -9.8419816e-05 
    4400    1.1460704  -0.30631722     2.112853    3.4181974 0.0031980851 
    4500   0.90592487  -0.43235291    2.4606266    3.3022306 -0.0092205239 
    4600     1.191775  -0.41016479    2.0188157    3.2845846 0.0072997356 
    4700    1.0630823   -0.6865676    2.4189243    3.2273162 -0.0029375926 
    4800    1.2242357  -0.87818472    2.4043424    3.2477392 -0.0047009019 
    4900    1.3504179  -0.93592939     2.439342    3.4024378 -0.004430509 
    5000    1.0833516  -0.53363916    2.3448184    3.3346425 0.0094023386 
    5100   0.89487239  -0.46567593    2.3732967     3.166035 -0.0010843899 
    5200   0.99218877  -0.60889758    2.2969789    3.0833468 0.0055163231 
    5300    0.9739087  -0.48690573    2.2445756     3.127229 0.0072030482 
    5400   0.92705278  -0.82381801    2.7300999    3.2099498 -0.0042465224 
    5500   0.95523837  -0.81472234    2.5440253    3.0726069 -0.0088657886 
    5600   0.90402966   -0.7249298    2.4786039    3.0249658 -0.003553235 
    5700   0.85822321  -0.42355198    2.2578464    3.0411708 0.00080908923 
    5800   0.89782559  -0.53568328    2.4154087    3.1422927 -0.0007440972 
    5900    1.0750662  -0.76230483    2.3728752    3.1223822 0.0033738816 
    6000   0.92382448  -0.93418845    2.8478357    3.2127755 3.9331644e-05 
    6100    1.2016053   -0.6833358    2.1792932    3.1857148 -0.0012844911 
    6200    1.1842657  -0.53701323    2.3249666     3.453327 -0.0039297898 
    6300    1.1541491  -0.46326861    2.2297706    3.3895242 0.0042127444 
    6400    1.3596454  -0.75544484     2.237969    3.3945255 -0.0013958152 
    6500    1.0492607  -0.65479976    2.4542199    3.2749431 -0.0038058576 
    6600      1.10677  -0.58081786     2.357025    3.3326024 -0.00068200571 
    6700   0.95318878  -0.47863553    2.5152381    3.3770243 -0.0073075407 
    6800   0.95012641  -0.21919022    2.3178273    3.4347523 -0.0011379274 
    6900    1.0973501  -0.19649744    2.1189982    3.4656494 0.0023077743 
    7000   0.99154536  -0.17063985    2.2146405    3.4383613 0.0044507852 
    7100   0.92822437  -0.22545658    2.3288836    3.4087425 -0.0031776669 
    7200   0.93235218  -0.10551861    2.1297662    3.3353678 0.0056608031 
    7300   0.83495344  -0.18653101    2.2629962    3.2506185 -0.0056164557 
    7400    0.8434429  -0.20991358    2.3111967    3.2873747 -0.0043832678 
    7500   0.73780649  -0.42366815    2.6622138    3.2760861 -0.0086547392 
    7600   0.99484521  -0.63057377    2.4833785    3.2518059 -0.0037056306 
    7700    1.2676161  -0.74569203    2.3215714    3.3584646 -0.0041237682 
    7800    1.1165938  -0.73431346    2.4849097    3.3208062 -0.0037389023 
    7900    1.2273047  -0.66962932     2.266192      3.32246 0.0042019166 
    8000    1.1219862  -0.59104606     2.322342    3.3090891 0.00033767557 
    8100    1.0514644  -0.41699451    2.2342816    3.2959089 0.0053586098 
    8200   0.98745824  -0.47876128    2.2442044    3.1540563 0.0083014833 
    8300   0.89594081  -0.60835631     2.395758    3.0473184 0.00067601916 
    8400   0.87798582  -0.47569722    2.3693401    3.1283104 0.0052093562 
    8500   0.83477082   -0.2332531    2.0050006     2.945644  0.021252894 
    8600   0.89522603  -0.58295799     2.405455    3.0814086  0.001826668 
    8700    1.0406613   -0.6342204      2.35472    3.1839296 -0.00044251172 
    8800   0.84462541  -0.44252184    2.3794752    3.1247078 0.0088808836 
    8900    0.9735025   -0.5663031     2.406815    3.2094998 0.0057196843 
    9000    1.2477949  -0.86417269    2.4542961    3.3448349 -0.0030186236 
    9100    1.0144816  -0.83425284    2.8154351     3.407797 -0.0033332998 
    9200    1.0204604  -0.89522227     2.783576    3.3233761 -0.0050240278 
    9300    1.2542553  -0.91686271    2.4718538    3.3187876 0.00022054939 
    9400    0.9204151  -0.90361695    2.9645624    3.3552792 -0.010014613 
    9500    1.2015297  -0.65778029     2.412942    3.4448129 0.0021385782 
    9600    1.1580131  -0.55151595    2.4241982    3.5011382 0.0084408604 
    9700    1.0404057  -0.85420051    3.0621141    3.6709841 -0.0045081861 
    9800    1.3030381  -0.34594534    2.1239411    3.6103931  0.016098526 
    9900   0.91360382  -0.60490011    2.8655865    3.5454418 -0.0068875551 
   10000    1.1011299  -0.82338032    2.8005361    3.5256198 -0.0087002576 
   10100     1.481665  -0.84104997    2.4010479    3.6435894 0.0027008093 
   10200    1.1511228  -0.82628094    2.6142619    3.4067474 0.0079679257 
   10300    1.3916938  -0.65516166      2.16369    3.4655977 0.0062171074 
   10400   0.95597725  -0.45917932    2.5688797    3.4540434 -0.005883756 
   10500     1.052318  -0.69502784    2.6095424    3.3943368 -0.0050825782 
   10600   0.96405546  -0.77810765    2.8090293    3.3866247 -0.0071600165 
   10700    1.1350617  -0.43982974    2.4463719    3.6027226 0.0082695265 
   10800    1.1584885  -0.56890998    2.5773087    3.6375232 0.0060680476 
   10900    1.3856154  -0.77383729    2.5895286    3.7642129 -0.00032132851 
   11000    1.3897343   -0.7279733    2.3506431    3.5769836  0.006911187 
   11100    1.3837966  -0.81434387    2.5080339     3.639654 -0.002435739 
   11200    1.4514301  -0.54087445    2.0566115    3.5568105  0.020660112 
   11300    1.3030033  -0.79192574    2.4253885    3.4658112 0.0035512583 
   11400      1.27706  -0.70661362    2.3816818    3.4709338 -0.0035306608 
   11500    1.1503218  -0.75147861    2.8250134    3.6911748 -0.0036305211 
   11600    1.3402421  -0.72148154    2.6147613    3.7779952 -0.0039852663 
   11700    1.1236185  -0.47744883    2.5270835    3.6297231 -0.0019292072 
   11800    1.3187104  -0.24582186    2.2301388    3.8387535   0.01915331 
   11900    1.7297665  -0.76559037    2.2913558    3.9582496 0.0039529457 
   12000    1.2366786  -0.39812529    2.5923439    3.9332979 -0.0041658106 
   12100    1.1447515  -0.52341813    2.7507698    3.8371584 -0.0077573452 
   12200    1.0838336  -0.46702039    2.6840255     3.741146 0.0022299178 
   12300    1.2538411  -0.35218518    2.3716183    3.7826471 0.00054619547 
   12400    1.1580707  -0.77135955     2.984115    3.8412924 -0.013136022 
   12500    1.4564491  -0.55435839    2.4081035    3.9018766 0.0090874883 
   12600    1.2543876  -0.77846679    2.7863684    3.7718842 0.00050660175 
   12700    1.2634619  -0.91027022    2.8744645    3.7409376 -0.010200971 
   12800    1.3995926  -0.88725122    2.5897354    3.6706613 0.0017559883 
   12900    1.2094395  -0.42079793    2.5060987     3.786075  0.010247025 
   13000     1.519646  -0.62983141    2.3372401    3.8444108 0.0043423282 
   13100    1.3603657  -0.67712695    2.7145025    3.9503898 -0.0097928199 
   13200    1.4193781  -0.26421261    2.1694538    3.9012417 0.0075929066 
   13300    1.3878689  -0.18980618    2.2177547    3.9796392 0.0030885152 
   13400    1.0973226  -0.52046798    2.9413238    3.9639657 -0.0097099773 
   13500    1.1222881  -0.62247349    2.9134043    3.8691484 -0.0043424095 
   13600     1.336911  -0.35270847    2.3363474    3.8636701 -0.0034220288 
   13700    1.1901773  0.015564311    2.3477096    4.0369607 -0.0013968166 
   13800    1.1398019   0.47609587    2.1890198    4.2679621 0.0069341905 
   13900    0.8584158   0.56451953    2.2827055    4.0543722 0.0029167635 
   14000     1.229024 -0.0091933054    2.2870414    4.0061631 -0.0019318827 
   14100    1.6436852  -0.42041967    2.1123608    4.0033734 0.0074250392 
   14200    1.2426913  -0.55070827    2.5230509    3.7198773 -0.0064748225 
   14300    1.1939776  -0.28524284    2.2387383    3.6325265 0.0095251179 
   14400    1.2721219   -0.1961449    2.1176625     3.710439  0.011868322 
   14500    1.1234772   0.04858623    2.2672116    3.8956876  0.012119128 
   14600    1.1814818  0.032808623    2.0552306     3.749498 0.0041450654 
   14700    1.0832569  -0.21208203     2.342431     3.653679 -0.0047950791 
   14800    1.0369143  -0.14583611    2.2816805    3.5940052 0.0036258007 
   14900    1.0529517  -0.11312549    2.3213198    3.6889076 0.0015163504 
   15000    1.0348376  -0.25950391     2.589666    3.7854025 -0.0078642965 
   15100    1.1279911  -0.41070486    2.6300011    3.8055337 -0.0032104215 
   15200    1.0838909  -0.28551472    2.5611203    3.7998272 -3.575372e-05 
   15300    1.0061444  -0.25258411    2.5129275     3.675234 0.0059272916 
   15400    1.2159992 -0.057209284    2.0871436    3.7399331  0.010446505 
   15500    1.1235659  -0.26780764      2.53533    3.8475369 0.00038968492 
   15600    1.2747216   -0.2278486    2.4062692    3.9709979 -0.0035950367 
   15700    1.1027834  -0.26787116    2.7237253    4.0066432 -0.0079786309 
   15800    1.1720933   -0.5096113     2.912527    4.0511719 -0.010960571 
   15900     1.430949  -0.16646085    2.0036008     3.849412  0.017430564 
   16000    1.1197496  -0.61389546    2.7913187    3.7520711 -0.011157569 
   16100    1.1824027 0.0042543054    2.1127265    3.7797347  0.019329106 
   16200    1.0837562  -0.33827194    2.7203432    3.9061034 -0.0038027003 
   16300    1.4474482  -0.36736784    2.3313682    3.9994743 0.0017592013 
   16400    1.3940524  -0.51038386     2.748023    4.1980254 -0.0078480991 
   16500    1.1879457  0.075377047    2.2739147    4.0198404  0.014714427 
   16600    1.0395645 -0.054617048     2.592826    4.0000965 -0.0085805984 
   16700    1.0300056  0.073183762    2.3129726    3.8346017 -0.0019418071 
   16800   0.98426009    0.1516203    2.2736151    3.8093512 0.0027053793 
   16900    1.0692321  -0.13667208    2.4022826    3.7692181 0.0053618651 
   17000    1.0402984  -0.16381451    2.4472722    3.7463773 0.0090895071 
   17100    1.1661864  -0.59498844    2.7104546    3.7554158 -0.0017399272 
   17200    1.3138934  -0.60846226    2.4911454    3.7303457 4.3219035e-05 
   17300     1.144594  -0.24327296    2.3096172    3.6759295 0.0044786508 
   17400    1.1647127  -0.31982668    2.4389833    3.7570339 0.0044369625 
   17500    1.2632699  -0.50756563     2.554784    3.8236917 0.00023877146 
   17600    1.2807301   -0.1890092    2.1551252    3.7671427  0.014649852 
   17700   0.96710264   0.14194724    2.0839011    3.5858364 0.0058275867 
   17800   0.82064506   0.10410947     2.228003    3.4861446 -0.0018746446 
   17900   0.88618839  -0.11876357    2.4256831     3.553122 -0.0057447207 
   18000    1.0163951  -0.13940385    2.2787551    3.5686568 0.0037406756 
   18100    1.1598369  -0.52223157    2.4658093    3.5745983 -0.00043002845 
   18200    1.0173809  -0.61201556    2.8029257    3.6216021 -0.0084756491 
   18300   0.93814312  -0.57816138    2.7783276      3.51943 -0.0058001878 
   18400    1.2357192  -0.23508259    1.9059642    3.4086118  0.020464561 
   18500    1.2330972   -1.0185105    2.7030953    3.4186277 -0.0079527823 
   18600    1.2236762  -0.84957323    2.5637011    3.4349225  0.012423607 
   18700    1.4054706  -0.87194798    2.3564214    3.4609165 -0.0046994953 
   18800     1.372422  -0.66222232    2.4015932    3.6693393 -0.0015639167 
   18900    1.1216607   -0.7398724    2.5942962     3.431759 -0.0027673305 
   19000    1.0936781    -0.662392    2.5411718    3.4167647 0.0089855558 
   19100      1.14913   -0.8227856    2.7053599    3.4985384 0.0069613648 
   19200    1.1950981  -0.79593105    2.7405506    3.6252263 0.0095238947 
   19300    1.2714438  -0.66566266    2.4757483    3.5980534 0.0071069805 
   19400    1.1074677  -0.45030124    2.4306933    3.5377684 -0.00078840536 
   19500      1.09332  -0.25112516    2.1745433    3.4608994  0.003680354 
   19600   0.95552195  -0.28563102    2.4253201    3.4833918 0.0024933928 
   19700   0.98195464 -0.095002418    2.1686994    3.4545706 0.0088226317 
   19800   0.88625556   -0.5394719    2.8864288    3.5932538 -0.014505534 
   19900    1.0753697  -0.17515464    2.2105341    3.5476182 0.0032822102 
   20000   0.87724036  -0.04886444    2.3527659    3.5375207 -0.0055354974 
   20100   0.89180745  -0.12818131    2.5579597    3.6838826 -0.010477634 
   20200    1.1654286  0.068307078    2.1001651    3.8073562  0.011368927 
   20300    1.0017618  -0.32978372    2.6410379    3.7199818 -0.0025868226 
   20400    1.0944243  -0.54871246    2.5995186    3.5898403 -0.0023810988 
   20500    1.3260675  -0.38645905    2.2763536    3.7546769 0.00023505161 
   20600    1.1097673  0.027787619    2.1854899    3.7738878 0.0050547739 
   20700    1.1217739  0.042017539    2.2907361    3.9102482 -0.00048676677 
   20800    1.0438592 -0.093284309    2.4127194    3.7873621 -0.0042045606 
   20900    1.2888228  -0.29577419     2.201562     3.718195 0.0036895102 
   21000    1.1296054  -0.63394273    2.8515515    3.8061164 -0.00018162754 
   21100   0.94666659  -0.48593722    2.9382991    3.7836118 0.0032833759 
   21200    1.4193535  -0.31966117    2.0897363     3.766041  0.013733816 
   21300    1.1352763  -0.32614563    2.5594114    3.8297481 0.0043167452 
   21400    1.3871629  -0.62481774    2.4093152    3.7351953 0.0066923205 
   21500    1.3043225  -0.62168632    2.7171706    3.9296878   0.00119779 
   21600     1.234577   -0.1402179    2.1476091    3.7435151 0.0059205878 
   21700   0.90865322  -0.14331018    2.4283314    3.5628148 -1.3642594e-05 
   21800    1.1458922  -0.53318219    2.5104338    3.5886624 -0.0028576673 
   21900    1.1418906  -0.11816976    2.1270814    3.6146954  0.013775325 
   22000   0.87846238  -0.42015273    2.6556295    3.4708145 -0.0081349275 
   22100   0.80925174  -0.14557497    2.3633849    3.3558201 0.0085777857 
   22200   0.96850659 -0.039038454    2.0974908    3.4204147  0.017230516 
   22300   0.74858848  -0.54897286    2.6780236    3.1817533 -0.00012690849 
   22400   0.85084053  -0.44695679    2.2029865    2.9525242 0.0016841913 
   22500    0.7896323   -0.4663564     2.366289     3.010353 -0.0041544051 
   22600   0.90043416  -0.62449992    2.4641577    3.1058934 -0.001713459 
   22700   0.77645815 -0.038197494    2.0337957    3.0874925  0.020583435 
   22800   0.99345064   -0.4210624    2.1943229    3.1703004   0.00231351 
   22900   0.87189828  -0.57017378    2.5333263    3.1892595 -0.0076946943 
   23000   0.91163876    -0.182072     2.095786     3.195706  0.013733861 
   23100   0.87034458   -0.3949063     2.224667    3.0536828 -0.0029990297 
   23200    1.1362326  -0.74603377    2.3759976    3.2277909 -0.0034782732 
   23300    1.1529862  -0.51072882     2.001698     3.112356  0.016210117 
   23400    1.1536582  -0.99695321    2.4254104     3.050789 -0.0030977284 
   23500    1.0091304  -0.82781857     2.467683    3.0589541 -0.0062093716 
   23600    1.3105821   -1.0580197    2.2560792    3.0410656 0.0013289759 
   23700    1.3268708   -1.3075613    2.3697288    2.9280796 0.0067479847 
   23800    1.0849744   -1.1706901    2.2380601    2.5931152 -0.0021568167 
   23900   0.91101658   -1.0334722    2.3686355    2.6162804 0.0051561736 
   24000    1.0415618   -1.0107112    2.1836378    2.6376229 0.0050475827 
   24100   0.76768005   -1.1523704    2.5799443     2.507124 0.0027411796 
   24200   0.95035528  -0.90116268    2.2313889    2.6666633  0.008069744 
   24300    0.8298488    -1.032718    2.6188917    2.7531486 -0.0077348569 
   24400   0.99637514  -0.94212405    2.2399448    2.6989733 0.0099131723 
   24500   0.91375703   -1.0498436    2.3682194    2.6033466 -0.005704409 
   24600   0.85984788  -0.76224764    2.1608149    2.6077283 0.0064459386 
   24700   0.80088447  -0.83066671    2.4320524    2.7276295 -0.0074005205 
   24800   0.77949286  -0.81043804    2.4324586    2.7181824 -0.0033121923 
   24900   0.91178865  -0.59797541    2.1474587    2.8316861 0.0052956746 
   25000   0.85372686  -0.76631728    2.3899672    2.8242033 6.8593122e-05 
   25100   0.95579027   -1.0727302    2.4796888    2.7510386 -0.0060237368 
   25200   0.92062277  -0.99725556    2.3669754    2.6643456 0.0058222419 
   25300   0.92407503   -0.6153947    2.2268035    2.9108893 0.0077116551 
   25400   0.98513344  -0.73362983    2.3121119    2.9638259 0.0017020383 
   25500   0.92439141  -0.90241616    2.3988935    2.7964028 -0.0038955725 
   25600   0.84356763  -0.65343255    2.2657299    2.7985643   0.00554412 
   25700   0.78733765  -0.88966292    2.6559158    2.8734464 -0.0063943717 
   25800    1.1231608  -0.77092505     2.040633    2.8491528 0.0070382364 
   25900   0.96726931  -0.67378703     2.220774    2.9072094 -0.0034518164 
   26000     1.054131  -0.65148761    2.2918969    3.1227811 -0.001796873 
   26100    1.0036887   -0.4567661    2.1981357    3.1528068 -0.0022359301 
   26200   0.95388792  -0.44345153    2.2395578    3.1375111 0.00085226323 
   26300   0.92177049  -0.53970544    2.2435789    3.0001132 -0.00017443576 
   26400   0.97150238  -0.48984068    2.1989087    3.0752432 -0.0006134703 
   26500   0.91116273  -0.14743562     2.072826     3.206713 0.0065625193 
   26600    1.0276845  -0.38962397    2.1598469    3.2154043  0.001344483 
   26700    1.0219352   -0.6760169    2.5914274    3.3525069 -0.0053478879 
   26800    1.0354279  -0.21921667    2.1166686    3.3535225  0.015604588 
   26900   0.70206473  -0.30001647    2.5634132    3.2506752 -0.0080338271 
   27000   0.98848825  -0.34881042    2.3334968     3.374748 0.0010205103 
   27100    1.1789405  -0.43657829    2.1859635    3.4072702 0.0047731242 
   27200    1.3690267  -0.76161235    2.3290411    3.4926225 -0.0029984763 
   27300    1.1345838    -0.571265    2.4067914    3.4310348 -0.0022935248 
   27400     1.319699  -0.47363523    2.1203649    3.5025564 0.0044654126 
   27500    1.4195419  -0.68275708    2.2737383     3.587212 0.0046513847 
   27600    1.0169025  -0.64734254     2.878811    3.6614875 -0.010314136 
   27700     1.318742  -0.22601486    2.0529167    3.6813828  0.010789125 
   27800    1.0098784  -0.20752262    2.4265616    3.6391804 -0.00048395896 
   27900   0.78551708  -0.15606986    2.8297219    3.7782854 -0.0060163525 
   28000    1.0420313   -0.3930452    2.5205631    3.5928744 0.0046608711 
   28100    1.1999933  -0.13691698     2.156971    3.7075446  0.014854427 
   28200    1.0607672  -0.62602168    2.9137353    3.7794175 -0.010723308 
   28300    1.2359286  -0.28423579    2.1263373    3.5801261 0.0076440547 
   28400     1.067809  -0.43260147    2.6921441     3.761149 0.0046061494 
   28500    1.5389118  -0.49519751    2.2548237    3.9237209 0.0060875016 
   28600    1.4272527  -0.60495123    2.6397365    4.0418594 -0.0067035497 
   28700    1.3866333  -0.18976626    2.3536147    4.1138015 0.00065112419 
   28800    1.1732044   0.29873086    2.2777254     4.226275 0.0073582196 
   28900    1.2433302 -0.015314817    2.5125104    4.2456287 -0.0045840704 
   29000    1.3885972 0.00074460867    2.1616099    4.1150692  0.013558933 
   29100    1.1616785   -0.4129893    2.8329639     4.053585 -0.008092975 
   29200    1.1569418  -0.37456573    2.7784374    4.0308211 -0.007530051 
   29300    1.4744681  -0.43919572    2.5823294    4.2166045 -0.0058165036 
   29400    1.5554004  0.067734757    2.1014804     4.356497  0.014273617 
   29500    1.3506082   0.18491839    2.2316296    4.3158408  0.014695471 
   29600    1.3364638  -0.41964073    2.8212163    4.2809778 -0.0086313002 
   29700    1.4706002  -0.26177976     2.638752    4.4450038 -0.0061649259 
   29800    1.4987214   0.20460043    2.2320464    4.5442238  0.010166738 
   29900    1.2358505 -0.076381288    2.7597104    4.4212439  0.009110966 
   30000    1.3016217  -0.33729681    2.8607036    4.3538123 -0.003430045 
   30100    1.2542247  -0.45819942    2.9756925    4.2812465 -0.0085638412 
   30200    1.2116089  -0.32264355    2.8305104    4.2116919 -0.0060097063 
   30300    1.0141609  -0.23818249    2.7030214    3.8910027 -0.0086124227 
   30400    1.0139328  -0.11518008    2.5006596    3.8113226 0.0022895449 
   30500    1.0761914   -0.5446502    2.7797513    3.7484953 -0.0089555983 
   30600    1.0746908  -0.41478856    2.6417336     3.738229 -0.0051229726 
   30700    1.2643653  -0.25605714     2.338994    3.8609507 -0.0022036509 
   30800    1.3553327   -0.2997293    2.4289212    4.0351285 0.0025589902 
   30900    1.4889273  -0.35354164      2.46032    4.2005823 -0.0011611718 
   31000     1.356246  -0.20746608    2.3176877    4.0174426 0.0097078686 
   31100    1.3672547  -0.32693931    2.3747568    3.9705195 -0.00027222622 
   31200    1.2406613  -0.46038105    2.5778419    3.8621409   0.00215064 
   31300    1.3438992  -0.76306599    2.8658534    3.9926456 -0.010732955 
   31400    1.2606738  -0.59761941    2.6939317    3.8691349 -0.0089003872 
   31500    1.3553724  -0.42348222    2.3857745    3.8682848 -0.00066239051 
   31600    1.3745715   -0.3202786    2.2545413    3.8672539   0.01462323 
   31700    1.1193217  -0.48151933    2.6999679    3.7924948 -0.0089391148 
   31800    1.2454442  -0.16623165    2.1118164    3.6969907  0.011372804 
   31900     1.133129  -0.46337443    2.6820464    3.8121346 -0.0076504882 
   32000    1.2676556  -0.30557647    2.3661392    3.8432034 -0.00073511598 
   32100    1.2768495  -0.45286045    2.4561579    3.7988671 0.00015155374 
   32200    1.4150517  -0.50902316    2.2489162    3.7298094  0.011409564 
   32300   0.96984779  -0.50309557     2.686374    3.5471269 -0.0065229741 
   32400    1.2260551  -0.56378111    2.3320346    3.4923934 -0.0027045561 
   32500    1.1151604  -0.71838903     2.600305    3.4501102 -0.0069077304 
   32600    1.0742537  -0.70204278    2.6180812    3.4267077 -0.0046698294 
   32700    1.3327342   -0.5197923    2.2068328    3.5611979 0.0042116001 
   32800    1.1746712  -0.71354607    2.5910627     3.529398 -0.0024971424 
   32900    1.1296923  -0.33590641    2.2166946    3.4694179 0.0057071084 
   33000    1.1682368  -0.54932593    2.3091137    3.4026209 -0.002439888 
   33100    1.3549029   -0.6335269    2.1726268    3.4444321  0.005344729 
   33200    1.0622494  -0.70634299    2.6057947      3.39324 -0.0071900954 
   33300     1.081221  -0.49563163     2.337957    3.3627924 -0.0037161642 
   33400   0.90668913   -0.5019664    2.5304888     3.303554 0.0026425005 
   33500   0.93260093  -0.29215232    2.2463442     3.265662  0.012982382 
   33600   0.84865033  -0.34487821    2.3227162    3.1712526 -0.0027501309 
   33700   0.88371893  -0.56388371    2.4737709    3.1526169 -0.005798613 
   33800    1.0509521  -0.50623438    2.3292035    3.3008705 -0.0052578865 
   33900    1.0965368  -0.36349858    2.1817627     3.360269 7.5480474e-05 
   34000    1.0216866  -0.23784246    2.1467137     3.345618  0.015106558 
   34100    1.0484996  -0.31380087    2.1839595    3.3446112  0.005476976 
   34200   0.92240489  -0.63588323    2.5228514       3.1841 -0.008147768 
   34300    1.0862707  -0.50078712     2.304868     3.331649 8.321991e-05 
   34400    1.2038265  -0.57517336    2.3660258    3.4837335 -0.0030865933 
   34500    1.3774789  -0.53350064    2.1846136    3.5881927 0.0073908884 
   34600    1.0709403  -0.44187934    2.4227133    3.4868437 -0.0067521853 
   34700     1.142349  -0.42946062    2.2824718    3.4594395 -0.0044324863 
   34800    1.0873359  -0.40993022    2.3532503    3.4723862  0.004440019 
   34900    1.2564379  -0.32769615    2.2504563     3.689626  0.010214656 
   35000    1.0823643  -0.45346077    2.6254852    3.6940993 -0.0057155532 
   35100    1.2501936  -0.45491983    2.2431199    3.5462848 0.0074927606 
   35200     1.078089  -0.74003207     2.737093    3.5131236 -0.0046731338 
   35300      1.10875  -0.11583454    1.8625182    3.3058634  0.031504575 
   35400    0.9418709  -0.74963121    2.5643584    3.1392332 -0.0029177086 
   35500   0.90104156  -0.42507184    2.2012006    3.0432184 -0.00082593244 
   35600   0.67808102  -0.47844181    2.6736001    3.1487098 -0.0081308552 
   35700    1.0646779   -0.3144538     2.003735    3.1864846 0.0087921842 
   35800   0.95929096  -0.56820027     2.420388    3.2011907 0.00071427309 
   35900   0.99091027   -0.5537412    2.4448516    3.2845779 -0.0018456879 
   36000   0.99350643  -0.58020156    2.3967703    3.2136871 -0.0037391043 
   36100   0.92080861  -0.27757476    2.2430483    3.2603606 0.0018427275 
   36200   0.93745118  -0.55936743    2.5657274    3.3246507 -0.0015295436 
   36300    1.1320065  -0.34143801    2.1108382    3.3612844  0.020331669 
   36400    1.2260748  -0.86879355    2.7353698    3.5907439 -0.0057254244 
   36500    1.2486724 -0.053554858    1.9233339    3.6257246   0.01784941 
   36600   0.98880465  -0.56033291    2.6913176    3.5214913 -0.011773634 
   36700    1.2881587  -0.49262069    2.1268234    3.4456759 0.0088337087 
   36800    0.9862561  -0.57677483    2.5711363    3.3812841 0.00045723311 
   36900    1.0496136  -0.50324061    2.1689764    3.1417549 0.0049987965 
   37000    1.0073313  -0.65395501    2.4833289    3.2459335 0.0045959045 
   37100     1.189934  -0.61003439    2.3337032    3.3970134 -0.0034298526 
   37200    1.0201042  -0.62252434    2.5427571    3.3547543 -0.007777609 
   37300    1.0575233  -0.51513554    2.3218814     3.293888  0.012596362 
   37400     1.086431  -0.51342261     2.314014     3.328385 0.0044695602 
   37500     1.036258  -0.78574655     2.677908    3.3493993 -0.006971135 
   37600    1.1359621  -0.43889454    2.2435958    3.4021479  0.006180269 
   37700    1.1936882  -0.67118859    2.3613195     3.368755 0.0015365043 
   37800    1.1906557  -0.68709062     2.459274     3.446543 -0.0022481678 
   37900    1.3048344  -0.58025558    2.1972562    3.4519241 0.0022487581 
   38000     1.258602  -0.32061445    2.1115026    3.5607971 0.0082709115 
   38100   0.94839396  -0.30156586    2.5894776    3.6215907 -0.0033636965 
   38200     1.118777 -0.040921806    2.3661738    3.8985322 0.0035558178 
   38300    1.2971105  0.050762675     2.233281    4.1081053 0.0080655519 
   38400    1.2434011  0.011686109    2.0269798    3.7871987  0.010329398 
   38500     1.248777  -0.33718439    2.3876654    3.8065736 -0.0034088446 
   38600    1.3673037  -0.34460256    2.1980989    3.7762672   0.00808564 
   38700    1.3611477  -0.27352248    2.1793993    3.8199909 0.0067131193 
   38800     1.187383  -0.34623092    2.2986441    3.6221705 -0.00074479655 
   38900    1.3183514  -0.37870025    2.2839122    3.7591435 -0.0017822001 
   39000    1.1649323  -0.14645856    2.1944112    3.6861387  0.017933026 
   39100    1.1910513  -0.25777265    2.3307428    3.7478861 0.0036039023 
   39200    1.2495361  -0.11158713    2.0560288    3.7016019  0.011528449 
   39300    1.3241605  -0.32045842    2.0940207    3.6356631 0.0065723854 
   39400    1.2298599  -0.51215677    2.4321882    3.6495219 0.0022564109 
   39500    1.2937189  -0.42144309    2.3182751    3.7161242 -0.0023267646 
   39600    1.3591657  -0.12807005    2.1421337    3.9253905 0.0040807147 
   39700    1.1490284 -0.021238709    2.1518321    3.7464145  0.007586961 
   39800    1.2166752 -0.091343463    2.3077435    3.9273494 0.0058373438 
   39900    1.2185019  0.083347012    2.1550821    3.9519474 0.0062111142 
   40000    1.1412648   -0.2505655    2.3810853    3.7354234 -0.0029176252 
   40100    1.2641554 -0.093342465    2.1747888    3.8591648 0.0079644104 
   40200    1.0859393  -0.13232903    2.4398842    3.8346574 -0.00025241439 
   40300    1.1110857 -0.029043495    2.2690736    3.8024944  0.004390777 
   40400    1.3343648 0.0082088585    1.9686265    3.8532858  0.018486225 
   40500    1.4015175   -0.7351139    2.5065851    3.7423553 0.0014547688 
   40600    1.7663025  -0.81847422    2.2689861    3.9343748 0.0070337189 
   40700    1.3125356   -0.8342009    3.1517909    4.1633431 -0.0026839233 
   40800     1.735015  -0.21117002    2.0774727    4.3061675  0.018158847 
   40900    1.3809395  -0.60298145    2.8790611    4.2180258 -0.0076909922 
   41000    1.5074909  -0.25159677     2.461165    4.3294773 0.0066827544 
   41100    1.4655056   -0.4062861    2.7488819     4.403463 -0.0017100129 
   41200    1.5542285 -0.078573461    2.2887627    4.3958231  0.011440006 
   41300    1.6569437  -0.48704955     2.564844    4.4078715 -0.0018519209 
   41400    1.4844133  -0.47645935    2.7695106    4.3805075 0.00046621001 
   41500    1.7775217  -0.77321205    2.5532354    4.2796633 -0.0032013664 
   41600    1.6145001  -0.38874248    2.2888872    4.1705355  0.019735885 
   41700     1.396686  -0.79550117    3.0882228    4.2568114 -0.0091547545 
   41800     1.458105  -0.69370598    2.8633587    4.2201129 -0.0063974628 
   41900    1.6106439  -0.44927642    2.6544887    4.4701802 -0.0045421499 
   42000    1.4857907   -0.1238552    2.5227016    4.4882395  0.011926454 
   42100    1.6253332 -0.093724104    2.3095402    4.5014408  0.004137056 
   42200    1.5307873  0.074413623    2.3467636    4.5738469  0.011274884 
   42300     1.564736   0.26381298    2.0299032    4.4941262  0.027303914 
   42400    1.4769297  -0.19342406     2.451232    4.3347403 0.0042449785 
   42500    1.5702746  -0.34406808    2.3246686    4.1887992 0.0027600245 
   42600    1.0787838  -0.15691107    2.6290884     3.989217 -0.00059557094 
   42700    1.4976328   -0.3747967    2.3537218    4.0849713 0.0095245981 
   42800    1.2540471  -0.11530888    2.3750984    4.0232933 0.0033762386 
   42900    1.1198235 -0.017819245    2.4074857    3.9644182 -0.0024719345 
   43000    1.1569773 0.0075067913    2.1417706    3.7762768 0.00092915499 
   43100   0.97865409 -0.021042923    2.2859561    3.6411455 0.0023523823 
   43200    1.0606407  -0.29104284    2.4749289     3.675412 -0.0048233977 
   43300    1.2054829  -0.43635509    2.3496646    3.6085198 -0.0042263802 
   43400   0.89590657  -0.70232731    2.9574923    3.5150336 -0.013380076 
   43500    1.2505726  -0.23129831    2.0881978    3.6155172 0.0073808346 
   43600    1.0925664  -0.28822619    2.2753432    3.5235385  0.011664797 
   43700     1.281267  -0.36345386     2.081655    3.5199829  0.013573825 
   43800    1.3383686  -0.52018581    2.3196802    3.6815752 0.0037488728 
   43900    1.3601943   -0.5764951    2.4266725    3.7629506 -0.001906222 
   44000    1.1381511   -0.3607675    2.4510473    3.6908047 0.0011411521 
   44100    1.0376715 -0.0073046468     2.215002    3.6669229  0.012952574 
   44200     1.106681  -0.17101919    2.2527782    3.6380292 0.0055038094 
   44300   0.91443503  -0.29860284    2.5477791    3.5351005 0.00042898105 
   44400     1.342685   -0.4521509     2.348136    3.7841358 0.00079275795 
   44500    1.1773296  -0.37857029    2.5426219    3.8196714 4.9135766e-05 
   44600    1.0350393  -0.35297613    2.4275913    3.5301392 0.0021208735 
   44700    1.0611027  -0.32298958    2.4428037    3.6119898 -0.0009376096 
   44800    1.2342185  -0.38587346    2.3855053    3.7352516 -0.0033493207 
   44900     1.159346  -0.44514805     2.571895    3.7570773 -0.0080504312 
   45000    1.0062071  -0.23267741    2.6297392    3.8120405 -0.0027104219 
   45100   0.83532036   0.31472795    2.3435908     3.832988 0.0026729447 
   45200     0.785501   0.33890258    2.1984248    3.6419382  0.010900564 
   45300   0.74942881   0.04898376    2.6206975    3.7235655 -0.0079306618 
   45400   0.78451364   0.44871386    2.0854266    3.6373628   0.02360464 
   45500    0.8754305  -0.26237306    2.6260451    3.5947462 -0.0056375235 
   45600   0.97352009  -0.19988597    2.3688501    3.5379767 0.0027289457 
   45700    1.0240226  -0.31739984    2.3218213    3.4444532 0.0047204545 
   45800    1.0370078  -0.32864147    2.3158322     3.445483 0.0018655399 
   45900    1.0432904  -0.65102531    2.6243275    3.4404294 -0.0061602976 
   46000    1.1722002 0.0050597512    1.9518315    3.6052979  0.014165223 
   46100   0.88458472  -0.21257774    2.5874801    3.6188496 -0.007819892 
   46200    1.2000318  -0.32578769    2.4380683    3.7998253 -0.0020563846 
   46300    1.2044342  -0.42970774    2.4937593    3.7577872 -0.0025756898 
   46400    1.2429761  -0.38578589     2.339999    3.7021483  0.013623611 
   46500    1.3538955  -0.36123453    2.1409799    3.6836609 0.0050086129 
   46600    1.0015587  -0.32598627    2.4751576    3.5576132 -0.0019970054 
   46700    1.1763457  -0.46889075    2.5043416    3.6896869 -0.0014212245 
   46800    1.2237667  -0.25264043    2.2806523    3.7489338 0.0095284049 
   46900    1.3042305  -0.43000604    2.3143977    3.7184658 0.0057829218 
   47000    1.1665961  -0.25552832    2.3577171    3.7427145 0.0038171888 
   47100   0.87926515  -0.25766082    2.6220392     3.600845 0.0042999318 
   47200    1.1545074  -0.14544071      2.13188    3.6099653 0.0034740673 
   47300    1.0471137   -0.4602038    2.6945335    3.7068334 -0.0052508479 
   47400    1.4562251  -0.18247987    1.9616699    3.8270066  0.020739661 
   47500    1.5074893  -0.76083445    2.6795583    4.0386307 0.00061134177 
   47600    1.5303363  -0.81299857    2.7428405    4.0818773 -0.00092262145 
   47700    1.6852425  -0.77941997    2.4679615    4.0584137 0.0023555152 
   47800    1.2971354  -0.57552492    2.7144693     3.963041 0.00035206066 
   47900    1.0817936  -0.16999728    2.2914278    3.6427028  0.012806609 
   48000    1.2636487  -0.40932385    2.2480577    3.6157398 0.0021697499 
   48100    1.0686916  -0.47990297     2.664287    3.6872317 -0.0038496143 
   48200    1.0446384  -0.23307151    2.3566328     3.592584 0.0085248969 
   48300     0.862726 -0.080629363    2.3261725    3.4587516  0.011370998 
   48400   0.83608865  -0.12344527     2.416066    3.4683704 5.3129739e-06 
   48500   0.89336816 0.0012546097    2.2190812    3.4766348 0.0027038826 
   48600   0.92832336  -0.20365691    2.4888161    3.5906139 -0.0024172185 
   48700    1.1897158  -0.29645686    2.2520231    3.6286041 0.0082077332 
   48800    1.0681846  -0.68175902    2.6869534    3.5073289 -0.0047185475 
   48900    1.2510985  -0.52410596    2.1898222    3.4250736 0.0087908832 
   49000    1.2569645  -0.47253533    2.2268845    3.5219554  0.012450241 
   49100    1.2850844  -0.48481222    2.3371909    3.6595287 0.0011217124 
   49200    1.2029866  -0.33414466    2.4356943    3.7932495 -0.0047314319 
   49300    1.2498242  -0.43502879    2.5386229    3.8611593 -0.0019254627 
   49400    1.3215853  -0.27948502    2.2112934    3.7902878  0.014736043 
   49500    1.1534352  -0.20087656    2.3642078    3.7853495 0.0025988253 
   49600     1.163203  0.010937524     2.200901    3.8475927 0.0060517093 
   49700    1.2033813  -0.10347216     2.315022    3.9038048  0.013212208 
   49800    1.2563053  -0.30501903    2.5568809    4.0185412 -0.0019826382 
   49900    1.4442569  -0.17474849    2.2548432    4.1110809 0.0070369315 
   50000    1.6108557  -0.33820609    2.3506772    4.2777369 0.0071865039 
Loop time of 9.96992 on 1 procs for 50000 steps with 16 atoms

Pair  time (%) = 0.217806 (2.18463)
Bond  time (%) = 0.0146785 (0.147228)
Kspce time (%) = 9.53731 (95.6608)
Neigh time (%) = 0.0231595 (0.232294)
Comm  time (%) = 0.0629759 (0.631659)
Outpt time (%) = 0.0289063 (0.289936)
Other time (%) = 0.0850837 (0.853405)

Nlocal:    16 ave 16 max 16 min
Histogram: 1 0 0 0 0 0 0 0 0 0
Nghost:    96 ave 96 max 96 min
Histogram: 1 0 0 0 0 0 0 0 0 0
Neighs:    103 ave 103 max 103 min
Histogram: 1 0 0 0 0 0 0 0 0 0

Total # of neighbors = 103
Ave neighs/atom = 6.4375
Ave special neighs/atom = 0.875
Neighbor list builds = 2939
Dangerous builds = 0

# Run without indenter
# unfix           4
# run		30000
