LAMMPS (9 Jan 2009)
# polymer simulation

units		lj
boundary	p p p
dimension	3

atom_style	full
neighbor	0.3 bin
neigh_modify	delay 5

read_data	data.polymer		# load volume dimensions, masses, atoms, and bonds
  1 = max bonds/atom
  orthogonal box = (0 0 0) to (12.5992 12.5992 12.5992)
  1 by 1 by 1 processor grid
  16 atoms
  7 bonds
  2 = max # of 1-2 neighbors
  2 = max # of 1-3 neighbors
  4 = max # of 1-4 neighbors
  6 = max # of special neighbors

pair_style	lj/cut/coul/long 1.12246204830937 5 # LJ_cutoff=2^{1/6}  [ coulomb_cutoff ]
pair_coeff	* * 1.0 1.0		# < atom_type1 atom_type2 epsilon sigma [ LJ_cutoff coulomb_cutoff ] >
pair_modify	shift yes		# LJ interactions shifted to zero
kspace_style	ewald 1.0e-4		# desired accuracy
# LAMMPS coulombic energy is (q1 q2) / (\eps r)
# bjerrum length is (\lambda_B = 3)
# temperature is (k T = 1.2)
# so dielectric is (1 / (1.2 * 3))
dielectric	0.2777777777777

bond_style	fene
bond_coeff	* 7 2 0 0		# < bond_type K R0 fene_epsilon fene_sigma >
special_bonds	lj/coul 1.0 1.0 1.0  	# turn on regular interactions between all monomers (even bonded ones)
  2 = max # of 1-2 neighbors
  2 = max # of special neighbors

# apply newtons equations
fix		1 all nve
fix		2 all langevin 1.2 1.2 10.0 699483 # < ID group-ID langevin Tstart Tstop damp seed [keyword values ... ] >
#fix		3 all setforce NULL NULL 0.0	   # enforce 2d

# run
timestep	0.003
thermo		100				# output thermodynamic quantities every 1000 steps
dump		1 all atom 100 dump.polymer	# < ID group-ID style every_N_timesteps file args >
# dump_modify	1 image yes scale no

run		50000
Ewald initialization ...
  G vector = 0.54631
  vectors: actual 1d max = 618 6 1098
Memory usage per processor = 1.9787 Mbytes
Step Temp E_pair E_mol TotEng Press 
       0            0   0.82846872    3.2957475    4.1242162 -0.019392071 
     100   0.48587326   0.91854035    2.6784159    4.2802155 -0.0090267538 
     200    0.6666566    0.8921701    2.4311036    4.2607595 0.00081497318 
     300   0.82370636    0.4430425    2.7632778    4.3646574 -0.0070675331 
     400    1.2096782   0.35320014    2.3646136    4.4189238 0.0050975781 
     500   0.99601119  0.060003925    2.7482468    4.2088915 -0.0045135303 
     600    1.4558057   0.15205501    2.1142334    4.3135152  0.012476116 
     700    1.5277835  -0.50178696    2.7620011    4.4086596 -0.0022228493 
     800    1.5530685  -0.25054348    2.3871661    4.3206253 0.0026124516 
     900    1.0705537 -0.044670502    2.4143117    3.8751073 0.0032025501 
    1000    1.3262968  -0.13832181    2.1170764    3.8438595  0.011569517 
    1100     1.097916  -0.43111825    2.7323988    3.8452249 -0.009955083 
    1200    1.2052848  -0.26632916    2.6556825    4.0842852 0.0055745005 
    1300    1.3098235  -0.40505337    2.6675334    4.1044193 0.00059138649 
    1400    1.5685761  -0.26901035    2.2761728    4.2129726 0.0069230557 
    1500    1.3059487  -0.46978699    2.8356978    4.2024011 -0.0021272235 
    1600    1.3615357  -0.46886837    2.9076498     4.353441 -0.0073331921 
    1700    1.6143676 -0.075231369     2.183479     4.378452  0.013989918 
    1800    0.9615454  -0.46749592    3.5451731    4.4298504 -0.018286593 
    1900    1.5445851  0.063210518    2.1604718    4.3957552  0.021332776 
    2000    1.1586249  -0.71524826     3.462093     4.376161 -0.0081403763 
    2100    1.4996835  -0.60105777    2.9755158    4.4833879 0.00011294889 
    2200    1.8574659  -0.19886626     2.210209    4.6234042  0.016847156 
    2300   0.95636474  -0.49191225    3.6564897    4.5094653 -0.018957675 
    2400    1.7802585  -0.19495956    2.2203853    4.5289142  0.026031648 
    2500    1.3719248  -0.60649164    3.1080498    4.4308274 -0.0073662986 
    2600    1.2575569 -0.085612999    2.7593608    4.4421871 0.0075540358 
    2700    1.3245383  -0.50172848    2.8946038    4.2555072 -0.0019696763 
    2800     1.384229   0.24511321    2.2966242    4.4883094  0.015799553 
    2900     1.186385  0.059807358    2.6452403    4.3734015 -0.0027080442 
    3000    1.2148638  0.054836801    2.7188209    4.4820599 -0.0047654588 
    3100    1.3880867  -0.10979643    2.4344637    4.2766642  0.004652181 
    3200    1.0625665  -0.25709587    2.9916401    4.2287783 -0.011734793 
    3300    1.3318486    0.3017305    2.2166341    4.3912766  0.018056046 
    3400    1.3414328 -0.031250658    2.5064535    4.3615927 0.0011442615 
    3500    1.2254455   0.22098253    2.5230343    4.4672995  0.001023558 
    3600    1.0575936   0.29910197    2.4825566    4.2688996 -0.0054940678 
    3700   0.96650024   0.40946554    2.3220628    4.0906693  0.014837024 
    3800    1.0604985   0.35008342    2.1898193    4.0312288  0.023993034 
    3900   0.99340698   0.20392527    2.4969252    4.0978291 0.0016828383 
    4000   0.99922172   0.10605508    2.4775366    3.9887472  0.005536681 
    4100     1.000039 -0.068672215    2.7140668    4.0516994 -0.0056181057 
    4200    0.9913341  -0.15107016     2.554796    3.7977894  0.007917419 
    4300    1.2698761  -0.58328873    2.6501389    3.8526134 -0.0014093146 
    4400    1.2979921  -0.73269616    2.5842139    3.6768191 -0.0050030964 
    4500    1.1586462  -0.50808183    2.4538769    3.5751413  0.006054119 
    4600    1.0909986  -0.38342774    2.4471218    3.5979109 0.0030975374 
    4700    1.0210967  -0.28494254    2.3827738    3.5337485 -0.0059261617 
    4800   0.88761544  -0.29766442    2.6133826    3.5639274 -0.00042949678 
    4900     1.168776  -0.16936819    2.1283977    3.6026208  0.011638694 
    5000    1.0274803  -0.38304598    2.4888568    3.5507049 -0.0014679185 
    5100    1.1950902  -0.22803591    2.0205057    3.4730653   0.01127233 
    5200   0.84432117  -0.42298696    2.5745064     3.338846 -0.0012375214 
    5300    1.0882985  -0.35888119    2.1039217    3.2754604 0.0069856444 
    5400    1.2951118  -0.95171327    2.6080467    3.4775844 -0.0036885467 
    5500    1.2352046  -0.69029526    2.5612425    3.6079537 -0.0048684652 
    5600     1.082156  -0.10775737     2.077092    3.4911164 0.0066216454 
    5700    1.0471484   -0.3111356    2.4401745    3.6015914 -0.00045151046 
    5800    1.1384858  -0.37162783    2.4488351     3.678203 0.0056558567 
    5900    1.2786914   -0.4456914    2.4655287    3.8179971 0.0032925236 
    6000    1.4521289  -0.70528634    2.6306493    3.9674191 0.0050941947 
    6100    1.2970774  -0.43469832    2.4308582     3.820175 0.0014204014 
    6200    1.0985217   -0.3660112    2.6515097    3.8302947 0.0040700827 
    6300   0.97901938  -0.31954659    2.7562391    3.8134385 -0.0021539956 
    6400   0.98930327  0.049352938    2.1584011    3.5989618 0.0026106331 
    6500   0.87220117 -0.077024104    2.3157085    3.4652173  0.011283862 
    6600    0.8808597   -0.2203667    2.4126752    3.4310175 0.0034071151 
    6700   0.86669114  -0.37980605    2.4409725    3.2799508 -0.0038119009 
    6800   0.94763244  -0.48468143      2.44674    3.2946667 -0.0020629624 
    6900    1.0789279  -0.60329608    2.5139909    3.4279372 0.00063902575 
    7000    1.0461918  -0.14257561    2.2073847    3.5360163 0.0027190039 
    7100    1.0091453 -0.085379614      2.17286     3.506591  0.010803806 
    7200    1.0625614  -0.27869767    2.2042917     3.419821 0.0066910064 
    7300    1.0939356  -0.88327572    2.7219325    3.3770038 -0.0046287255 
    7400    1.4056946   -0.6394091    2.2701251    3.6074741 0.0097889511 
    7500    1.0812524  -0.60613887    2.5849241    3.4992964 -0.0011564132 
    7600    1.0387729 -0.049402074    2.0646017     3.475974  0.011928555 
    7700    1.1598768  -0.59162558    2.6695182    3.7089694 -0.010089143 
    7800    1.2838928   -0.5851015    2.3882401    3.6086129  0.001599336 
    7900    1.0758926  -0.59253512    2.5520376    3.4724765 -0.0036729527 
    8000    1.0781273 -0.074330993    2.0528909    3.4946765  0.012238206 
    8100   0.94508097  -0.34441867    2.5051128    3.4897142 -0.008250801 
    8200    1.1752928   -0.4505529    2.2748328    3.4770353 0.0023192477 
    8300    1.3409324  -0.39385788    2.1124689    3.6042972 0.0073900979 
    8400    1.1039614  -0.27714414    2.2833483    3.5586499 -0.0027112611 
    8500    0.8275411  -0.28139324     2.509401    3.3917374 0.0040303297 
    8600   0.86154386  -0.37573924    2.4219833    3.2577901 -0.00029779654 
    8700   0.98905601  -0.20393875    2.2735305    3.4604518 0.0042769095 
    8800    1.1222977  -0.57910362     2.527025    3.5261525 -0.00011888704 
    8900    1.3027165  -0.61152271    2.4331161    3.6535385 0.0011531173 
    9000    1.0701461 -0.048029213     2.246847    3.7037108   0.01086786 
    9100    1.1282315  -0.20282516    2.4903039    3.8740542 0.0031063524 
    9200    1.1273162  -0.41606756    2.6477525    3.8169734 -0.0025377582 
    9300     1.150353    0.1418714    2.0104582    3.7700135  0.013123932 
    9400    1.1049201  -0.32182541    2.5926925    3.8246609 -0.0022261566 
    9500     1.063201  -0.15020096    2.4870905     3.832016 0.0057309387 
    9600    1.1220186 -0.090462459    2.4125508    3.8999271 0.0099039764 
    9700    1.0564994   0.26546672    2.1874828    3.9386518  0.014452763 
    9800    1.1315523  -0.15531437     2.670747    4.1066781 -0.0047774333 
    9900    1.3003604   0.11690929    2.1165021    4.0620431 0.0097021552 
   10000    1.1299995   0.12543705    2.3310554    4.0455543 0.00055275482 
   10100    1.0241251   0.44020887    2.2411052    4.1214901 0.0059644403 
   10200    1.1021683   0.09355523     2.499457    4.1429364 -0.0071423361 
   10300    1.0355952  -0.07593932    2.6682254    4.0485919 -0.0031446622 
   10400    1.4523029   -0.3588543    2.5049261    4.1883728 0.00050252733 
   10500    1.2270287   -0.4625782    2.8727856    4.1357165 -0.006317351 
   10600    1.6213859  -0.18166395    2.0561613    4.1545712  0.018604983 
   10700    1.3410313  -0.30082972    2.4374781    4.0224737 -0.0033652879 
   10800    1.1328099  -0.16592996     2.395051    3.8221349 -0.001411002 
   10900    1.0033634   0.12096831    2.3012672    3.8332153 0.0035605889 
   11000   0.87689849   0.10454323    2.3358856    3.6735673 -0.0044365102 
   11100   0.80056575   0.15099689    2.3361791    3.6129716 -0.0048554303 
   11200    0.7652304   0.13697019    2.3321227    3.5451982 -0.004164184 
   11300   0.85485216   0.10236225    2.2738464    3.5783445 -0.0018453247 
   11400       1.0265   -0.2654899    2.4843786    3.6624044 -0.0066229172 
   11500   0.82805591  0.065680037     2.564204    3.7943376 0.0092408389 
   11600    1.0443866   0.18006102    2.2931517    3.9418814 0.0086003326 
   11700    1.2098722  -0.30564638    2.7017455    4.0974819 -0.0083940299 
   11800    1.1566804  -0.21292505    2.5968803    4.0105371 0.0065617807 
   11900    1.1608485  -0.11249116    2.3415324    3.8614844   0.00747929 
   12000    1.2703323  -0.38769722     2.424838    3.8235456 0.0025752817 
   12100   0.82750174  -0.26094668    2.8940841    3.7968118 -0.0092615844 
   12200   0.98122431 -0.071105116    2.3676092    3.6763508 0.0065427092 
   12300    1.0392319  -0.61034346    2.7944364    3.6455128 -0.0048295482 
   12400    1.4106277  -0.84825938    2.3942241    3.5296599 0.0054510666 
   12500    1.2792408  -0.88390456    2.6020893    3.5171171 0.00028664863 
   12600   0.90626721  -0.26225697    2.2944256    3.3066069  0.010391468 
   12700   0.80437573  -0.16936223    2.2542895    3.2160807 0.00050531288 
   12800   0.74385715  -0.24500451    2.5686657    3.3697103 -2.0128373e-05 
   12900    1.3602832  -0.50704121    2.2861665    3.6920236 0.0097516068 
   13000    1.1645099  -0.76774702    3.0047734    3.8746184 -0.0084130127 
   13100    1.4273167  -0.56978675    2.6754201    4.1127975 0.00064657559 
   13200    1.4027498  -0.81867831    2.7626697    3.9166082 -0.0036647614 
   13300    1.4295164  -0.27956948    2.0659307    3.7966188  0.014336893 
   13400    1.4752933  -0.55675128    2.2625214    3.7804013 0.0013904103 
   13500    1.1229678  -0.56079738    2.5528349     3.571211 0.0012874158 
   13600      1.03689  -0.57146048    2.8556937    3.7423598 1.3200312e-05 
   13700    1.2327815  -0.40639852    2.5033481    3.8305486 -0.0035332176 
   13800    1.2410667  -0.29190007    2.4670148    3.9203648 -0.0013665195 
   13900    1.1065138  -0.29830256    2.4416719    3.6994043 -0.0020133413 
   14000    1.1609154  -0.29988665    2.3241317    3.6567824 2.8190319e-05 
   14100    1.1956629  -0.47163704    2.4823462    3.6921101 -0.0030188006 
   14200    1.3604967  -0.50635876    2.3306656    3.7375053 0.0046011602 
   14300    1.4087312  -0.45983734    2.1589376    3.6801286 0.0085107154 
   14400     1.034655  -0.40686159    2.5194211    3.5675431 -0.0049496013 
   14500    1.1714154  -0.24338984    2.1304362    3.5343493 0.0042887485 
   14600     1.150866  -0.50108592    2.3577037    3.4750231 0.00028628235 
   14700    1.1680382  -0.21282362    2.1341084    3.5638385  0.015821797 
   14800    1.1620428  -0.72765645    2.4203003    3.3267665 -0.0041848608 
   14900    1.2918555  -0.74117852    2.2752701    3.3507634 0.0040503769 
   15000    1.1220665  -0.33796812    2.1464569    3.3863948  0.003152603 
   15100    1.1418282  -0.46521581    2.4057009     3.546181 -0.0042272452 
   15200    1.1138014  -0.48627085    2.6264951    3.7065075 -0.0035821969 
   15300    1.1668989  -0.16437313    2.1899403    3.6665187  0.014434761 
   15400    1.1213466  -0.15691831    2.3553592    3.7753345 0.0053904675 
   15500     1.201703  -0.54639339    2.6005514    3.7440529 -0.0038145775 
   15600    0.9842256  -0.32141127    2.5579179    3.6205739 0.0053992113 
   15700    1.1719581  -0.50901882    2.4336103    3.5726576 -0.00020560924 
   15800    1.1373454  -0.33112145    2.4753876    3.7436581 0.0062693501 
   15900    1.0382296   0.09813514    2.1734805     3.731626   0.00942456 
   16000    1.0090961  -0.18247402    2.5910718    3.8276392 -0.0021325102 
   16100    1.0479917  0.061118157    2.1053943    3.6402507  0.014281027 
   16200    1.0666993  -0.55784283    2.6888018    3.6310049 -0.0058413219 
   16300   0.95796385  -0.41422948    2.5485665    3.4814737 -0.0062025595 
   16400    1.0204739  -0.34441146    2.5281025    3.6187325 -0.0016943276 
   16500    1.3374699  -0.44220642    2.3708931    3.8095036  0.010293507 
   16600    1.2942513  -0.20829364     2.061961    3.6737084  0.011589017 
   16700    1.2901845  -0.59412568    2.7071004    3.9272966 -0.005068828 
   16800    1.4068692  -0.50548347    2.5634274    4.0363538 0.0090303802 
   16900    1.5902848  -0.87447348    2.7093709    4.0712353 -0.0030917609 
   17000    1.7537472  -0.87729129    2.5739081    4.1628238 0.00090538367 
   17100    1.4540178  -0.90118401    2.8378675    3.9813961 -0.0063533533 
   17200    1.6137818  -0.82124358    2.4131046    3.8612417  0.015829595 
   17300    1.6886031   -1.0871825    2.7059215    3.9933372 -0.0034024437 
   17400    1.4338817  -0.87134348     2.822247    3.9672997 -0.0065254068 
   17500    1.5802731  -0.55869918    2.1757932     3.839353 0.0057758386 
   17600    1.3372854  -0.48233889    2.4508669    3.8490856 0.0016331458 
   17700    1.2844925   -0.3836935    2.4214357    3.8440598 0.0014488734 
   17800    1.4527894  -0.78408294    2.7118661    3.9707682 -0.0048681137 
   17900    1.5760063  -0.54737163    2.3922651    4.0611523 0.0020620261 
   18000    1.5515274  -0.71652981    2.5790391    4.0443447 -0.0017924298 
   18100    1.5231328   -0.5612632    2.4540248    4.0346671 0.0029116686 
   18200    1.5400138  -0.90563681    2.7862594     4.046267 -0.0058227347 
   18300     1.636784  -0.67069294    2.4429356    4.0739701 0.0048797497 
   18400    1.3102326  -0.78672268    2.8094082    3.8652001 -0.0088271386 
   18500    1.5297973  -0.27713973    2.1983512     4.072489  0.013485757 
   18600    1.4247453 -0.055478983    2.0225161    3.9705852  0.021864922 
   18700    1.7815561  -0.83005926    2.3921198    4.0673738 0.0072978869 
   18800    1.4502433  -0.82653374    2.8974305    4.1103015  0.002618219 
   18900      1.50472  -0.79320597     2.499603    3.8224095 -0.003130591 
   19000    1.4789605  -0.55157109    2.2951898     3.823407 0.0035228051 
   19100    1.2317546  -0.53367018    2.4106325    3.6091172 0.0086381049 
   19200    1.3797688  -0.74774643    2.3910849    3.5836383 0.0034626953 
   19300    1.3944739  -0.82978054    2.4781742    3.6093727 0.0060702452 
   19400    1.2211067  -0.63583344    2.7775052     3.858853 -0.0003965318 
   19500    1.5343227  -0.87886248    2.6239963    3.9027751 -0.0025870646 
   19600    1.2705043  -0.69009923    2.6012533    3.6978007  0.001892546 
   19700    1.1222678  -0.62340906    2.6440827    3.5988627 -0.0055089669 
   19800    1.1662629  -0.11637968    2.1812259    3.7049034  0.013866437 
   19900    1.1993034  -0.25636877    2.3473725    3.7775242   0.01797535 
   20000    1.3685702  -0.71611356    2.7251127     3.933551 -0.0054818904 
   20100    1.2366732  -0.16737493     2.231956    3.8036527  0.015454811 
   20200   0.96440947  -0.36685389    2.6901092    3.6794561 -0.0089589393 
   20300    1.2139458  -0.41950981    2.3384689    3.6260704 0.0052678383 
   20400    1.0963578  -0.53462117    2.5299216    3.5370536 0.0031355688 
   20500    1.0822038  -0.48369588    2.6188509    3.6570042 -0.0053799212 
   20600    0.9979368   0.11727789    2.2143923    3.7350188  0.024662957 
   20700    1.2950969  -0.19685316    2.2576991    3.8820759  0.012875533 
   20800    1.2907023  -0.51373741     2.673156    3.9744687 -0.0059128003 
   20900    1.4085273  -0.22608559    2.2864083    4.0410642 0.0018092939 
   21000    1.3107117 -0.074625364    2.2706525    4.0392154 0.0026867383 
   21100    1.4258323 -0.082563546    2.2696904    4.1922035 0.0044710216 
   21200     1.138422  -0.19250406    2.7821795    4.1905814 -0.0054311537 
   21300    1.5260965  -0.12315937    2.2900467    4.3129606 0.0067878927 
   21400    1.1454082  0.068217631    2.5554342    4.2343821 -0.0046900522 
   21500     1.001541   0.75263375    2.1206076    4.2816584  0.023241259 
   21600    1.0014027   0.40153818    2.3815082    4.1912689 -0.00096983094 
   21700    1.1121682   0.45935209    2.2022896    4.2256282 0.0053156148 
   21800    1.0426103   0.29382982    2.5851975    4.3451981 -0.0018285007 
   21900    1.0311634   0.21542274    2.5719422    4.2374384 -0.0068499226 
   22000    1.1797002   0.29087129    2.3527763     4.302601 0.0063414178 
   22100    1.1054327   0.13510876    2.5683597    4.2579831 0.0020591939 
   22200    1.3025071  -0.19660536    2.6017227     4.236768 0.0016531279 
   22300    1.2385212  -0.25079486     2.655709    4.1465846 -0.0049473189 
   22400    1.4029078  -0.14492847    2.5598106    4.3877212 -0.0040125394 
   22500    1.3678684   0.14862601    2.1633782    4.2355691  0.017336537 
   22600    1.1572598   0.18531374    2.4550284    4.2677387 0.0051807718 
   22700    1.1125967  0.057743343    2.5347279    4.1570603 3.0806556e-05 
   22800    1.1141081  0.075306256    2.4429738    4.0849946 -0.0017558303 
   22900    1.0527565   -0.1141531    2.5683589    3.9346446 -0.0059677335 
   23000    1.1033444  -0.22216382    2.6546607     3.984075 -0.0056220671 
   23100    1.1450262       0.5087    1.9615186    4.0804117  0.018517623 
   23200    1.1105594   0.44444506    2.1431501    4.1493193 0.0096261655 
   23300    1.1908417   0.11357611    2.5534208     4.341618 0.0020243933 
   23400    1.2790097  0.043356485    2.3996485    4.2416124 0.0003961471 
   23500    1.5445461    0.1150934    2.1216182    4.4087295 0.0071341206 
   23600    1.2977668  -0.12964987    2.6755342    4.3708689 -0.0081261395 
   23700    1.5093358 0.0033710786    2.1949915    4.3208661 0.0081301418 
   23800    1.2841244  0.039113944     2.415411    4.2603249 -0.0044935643 
   23900    1.1915618   0.31460664    2.2760154    4.2662559 0.0077331098 
   24000    1.2952524 -0.024747701    2.5838811    4.3805821 -0.0033692621 
   24100     1.358806  0.094123379      2.31006    4.3150044 -0.00089946915 
   24200    1.1888368   0.18611347    2.5319537    4.3898689 0.00025245015 
   24300    1.3168714 -0.039678795    2.5042192    4.3163909 -0.0040845071 
   24400    1.5349198 -0.074618983    2.3395044    4.4233664 0.0028292568 
   24500    1.2966213   0.08626112     2.286281    4.1959159 0.0084519475 
   24600    1.3284386  -0.19848972    2.5352191    4.2048461 0.0041881017 
   24700    0.9844878  -0.42132291    3.0589676    4.0220807 -0.0037618654 
   24800    1.3312211  -0.13812768    2.2094144    3.9433164 0.0045817436 
   24900    1.1177084  -0.19326281    2.6420169    4.0205315 0.00099971384 
   25000    1.2798921   0.08687655    2.2668347    4.1535596 0.0063310343 
   25100    1.0543722 -0.003101229    2.6643003    4.1439099 -0.0060012116 
   25200    1.3085015  0.092747131    2.1815735    4.1144008 0.0053395868 
   25300    1.2790836  -0.18237696    2.5745593    4.1908937 0.0070031294 
   25400    1.3219066   0.05685371    2.2523351    4.1681199 0.0028060091 
   25500    1.1308842  0.052741631    2.3779076    4.0209551 -0.0017377711 
   25600    1.2018485 -0.055748614    2.4505042     4.084855 0.0012990597 
   25700    1.3033169  -0.27674688    2.5296795    4.0857221 -0.00035232417 
   25800    1.4367531  -0.40846231    2.3630749    3.9750466 0.0042025066 
   25900     1.223397  -0.31925233    2.5752051    3.9763548 -0.00097642755 
   26000    1.0017074 -0.067191019    2.5739909    3.9154508 -0.0047091411 
   26100    1.1281126 -0.030606443    2.4553981       4.0112 -0.0045175689 
   26200    1.1523502 -0.040829352    2.4706791    4.0503423 -0.0036593137 
   26300    1.1577936  -0.10326064    2.3922055    3.9170921 0.0035978195 
   26400       1.2766 -0.093425984     2.324721    4.0265138  0.013468063 
   26500    1.1919643  -0.11143464    2.4831121    4.0478773 0.0074092328 
   26600    1.2921648  -0.30745071    2.6785893    4.1882453  0.011012819 
   26700    1.4075362  -0.25011769    2.4238314    4.1530615 0.00057251246 
   26800   0.98788654 -0.061827381    2.7120353    4.0394234 -0.0055496294 
   26900    1.0130733   0.27468947    2.5002796    4.1996034 0.0092210075 
   27000   0.87587679   0.40183067     2.340701    3.9742334 -0.00088471924 
   27100    1.1141895   0.17457618    2.3305106    4.0719159 -0.0017529963 
   27200    1.0846572  0.050878589    2.4623955    4.0385732  0.002131408 
   27300    1.0957473   0.07711944     2.488994    4.1070081 0.0046178751 
   27400    1.1533027   0.17032554    2.3936084    4.1857659 0.0013650415 
   27500    1.1174415  0.072726882    2.3105355    3.9546645 0.0033572517 
   27600    1.0893074  -0.14222797    2.5035858    3.8931965 -0.0015113133 
   27700    1.2175411  -0.25335674    2.4312845    3.8900949 0.00064096268 
   27800    1.2767704  -0.18297971     2.099663    3.7121416  0.010326245 
   27900    1.2060688  -0.27051057     2.395061    3.8205846 0.00070614289 
   28000    1.0780366  -0.14467642    2.2296231    3.6009355 0.0076322687 
   28100     1.114331  -0.36328088    2.4621479    3.6658951 -0.00026146209 
   28200    1.0833156  -0.29013128    2.4906912    3.7239725 -0.0029830069 
   28300    1.3120532  -0.26619031    2.2089049    3.7877893  0.016584768 
   28400    1.4207516  -0.70732331    2.5899789    3.8805875 0.00078402303 
   28500    1.4696706  -0.52337864    2.4446979    3.9880436 0.0038211309 
   28600    1.1702345  -0.12773927       2.3868     3.904703 0.0061248601 
   28700    1.1591341  -0.41264071    2.5956981    3.8130898 -0.0025478138 
   28800    1.2009635  -0.36917497    2.5832863    3.9029662 0.0058118103 
   28900    1.1384632  -0.35595476    2.5972458    3.8422549 0.0073153634 
   29000    1.1751922  -0.20346405    2.4304318    3.8795818 0.0021399123 
   29100   0.92805847 -0.090765448     2.583598    3.7979148 -0.0055398627 
   29200   0.99307921  0.057686884     2.371034    3.8252386 0.00040737907 
   29300    1.1232234 -0.064140949      2.46442     3.979812 -0.0050334277 
   29400    1.1615941  -0.25599097    2.7550142    4.1325149 -0.0031655426 
   29500    1.0881903 -0.079031311    2.7398712    4.1911074 0.0062985681 
   29600    1.1626739  -0.13186778    2.5835202    4.0866626 -0.00092003209 
   29700    1.2646105  -0.25351111    2.6958305    4.2206778 -0.003169565 
   29800    1.1733603   0.16925318    2.3504459     4.169737 0.0077119868 
   29900    1.0597151  0.049178977    2.5143033    4.0537067 -0.0039784174 
   30000   0.91650927   0.15651366      2.59181    4.0371648 -0.0052664714 
   30100    1.2140995   0.17516293    2.1919971    4.0744875  0.011731865 
   30200    1.1184499   0.28155571    2.3243522    4.1787281  0.016122778 
   30300     1.308936  -0.10862246    2.5760233    4.3080921 -0.0040876411 
   30400    1.4183937  -0.16102662    2.3845535     4.218143 0.0026436997 
   30500    1.2382032  -0.16903614    2.7797263    4.3519134 -0.0043527907 
   30600    1.3596263  0.076172218    2.2627695    4.2509163 0.00053508361 
   30700    1.0619685   0.35352271    2.3052234    4.1521393 -0.0015774515 
   30800    1.0169547   0.48324174    2.3058003    4.2191346 0.0013565309 
   30900    1.2420945   0.18162342     2.461011    4.3893298 -0.0028717949 
   31000    1.3101962 -0.0054982751    2.5487716    4.3857366 -0.0035146973 
   31100    1.4763738   0.18747025    2.1633732    4.4269941  0.017121555 
   31200    1.4490833  -0.25228342    2.4844049    4.2698949  0.011009615 
   31300    1.2085959  -0.37447837    2.8244135    4.1495231 -0.0067910488 
   31400    1.2507135  0.095533869    2.1386455    3.9929953  0.013655026 
   31500     1.065454   -0.2139237     2.601397    3.8857679 -0.0059730052 
   31600    1.1373508  -0.13426859    2.3151884    3.7803194 0.0027187786 
   31700   0.94321364  -0.29553928    2.5917665    3.6226214 -0.0084721889 
   31800    1.2513725  -0.25771415    2.0622881    3.5643165 0.0051782543 
   31900    1.1775751  -0.24552581    2.2888071    3.6992463  0.008423541 
   32000    1.2224448  -0.46591873    2.4868516    3.7399959 -0.00078766966 
   32100    1.1638419  -0.33944534    2.4616925    3.7588998 -0.0020662302 
   32200    1.1632084  -0.12522056     2.406502    3.9170432 0.0018018065 
   32300   0.82533176 -0.028022794     2.687074     3.819674 -0.0043216537 
   32400    1.0421582  0.031906015    2.4456149    3.9430558 0.0016746458 
   32500    1.0604913  -0.27349586    2.7617451    3.9795651 -0.0084579696 
   32600    1.1782541  -0.48054648    2.7244922    3.9008655 -0.0082648772 
   32700    1.2780107   -0.5422822     2.644495    3.8994154 0.00084867523 
   32800    1.4577371  -0.43463337    2.3271997    3.9425092  0.011287114 
   32900    1.2840493  -0.63197746    2.8382741    4.0119909 -0.0089697583 
   33000    1.1194751  -0.13856039    2.4834976     3.919199 -0.0011800954 
   33100     1.075663  -0.29839181    2.7695155    3.9837747 -0.0070178711 
   33200    1.3143811  0.078285067    2.0309922    3.9576257  0.018222197 
   33300    1.3421972   -0.6397004    2.8008062    4.0485706 -0.0050947702 
   33400    1.2437273   -0.6586478    2.8376901    3.9280338 -0.0077753523 
   33500    1.4374073  -0.13666602    2.1027414    3.9874295  0.018278283 
   33600    1.0866195   -0.3307854    2.7964852    3.9937586 0.0042523437 
   33700    1.0218867  -0.23712517    2.6842187    3.8841217 0.0037166343 
   33800    1.0289836  -0.74709566    3.2334716    3.9333841 -0.011034513 
   33900    1.3732182  -0.39551232    2.3648527    3.9004284 0.0054807826 
   34000    1.0603068  -0.53503944    2.8448187    3.8008357 -0.011887402 
   34100    1.1133239  0.017918851    2.1377099    3.7212405  0.018935266 
   34200    0.9091977  -0.48349198    2.7663747     3.561442 -0.0042471431 
   34300    1.0564432  -0.34711811    2.2946535    3.4331587 -0.0017912108 
   34400   0.82050766  -0.45982957    2.8099697     3.503979 -0.0079339423 
   34500   0.95078448  -0.25801578      2.34996    3.4289849 0.0078489842 
   34600   0.90555448  -0.37299454    2.5929233    3.4933647 -0.0057568841 
   34700    1.3081929  -0.46416005    2.2397102    3.6151964 0.0039200182 
   34800     1.063191  -0.73074677    2.8315291    3.5958947 -0.011728169 
   34900   0.92913768  -0.31865027    2.6675203    3.6554699 0.0090973142 
   35000    0.9925929 -0.068351756    2.2270873    3.5545693    0.0180112 
   35100   0.88441133   -0.5014689    2.7984614     3.540696 -0.0030316378 
   35200   0.96649639  -0.42592789    2.4922119    3.4254195 -0.00081963728 
   35300    1.1119007  -0.37715125    2.2296797    3.4161388 0.0023324524 
   35400   0.93762173  -0.39364816    2.5010565    3.4259389 0.0055975353 
   35500   0.94828153   -0.5210351    2.4970262     3.309512 -0.0027712677 
   35600    1.0968759  -0.61918688     2.604764    3.5280588 -0.0070925547 
   35700    1.2282442  -0.44944471      2.44095    3.7187237 0.0011463911 
   35800    1.2579606  -0.65643198    2.5375226    3.6500977 -0.0049798879 
   35900    1.1950257  -0.12207264    2.0134811    3.5719133  0.018784798 
   36000    1.2961403  -0.39753707     2.232753    3.6579132 0.0089725334 
   36100     1.142502  -0.39522293    2.5673812    3.7788017 -0.0024057567 
   36200    1.3088551  -0.43929059    2.3983671     3.799654 0.0029479417 
   36300    1.1008804 -0.044931955    2.1804904    3.6836715  0.014629169 
   36400     1.215629  -0.39299014    2.5012503    3.8177385 -0.0013803087 
   36500    1.1313091  -0.40434402    2.4877514    3.6743108 0.0040542924 
   36600    1.2289173  -0.25202483    2.2356515    3.7117917  0.005804661 
   36700   0.94044371  -0.30584189    2.6418051    3.6584622 -0.0014984741 
   36800    1.3279742  -0.35311745    2.1400162    3.6543624 0.0061165434 
   36900    1.3110593  -0.53041289    2.4566566    3.7699209 -0.0037513055 
   37000    1.2167102  -0.22065752    2.4039454    3.8942866 0.0025323427 
   37100    1.0102902  0.056283336    2.3868519    3.8638558 0.0018349042 
   37200    1.0549546  0.066843791    2.4244383    3.9748119 0.0008016561 
   37300    1.0045515   0.14344795    2.3510925    3.9071909 0.0039983012 
   37400     1.249639   0.15939248    2.0894535    4.0061509  0.017515324 
   37500    1.3299372  -0.06219094    2.3022297     4.110263 -0.00054045253 
   37600    1.0523447 -0.046194411    2.4129509    3.8466162 0.0071320324 
   37700   0.97695323  -0.15268136    2.4118572    3.6330163 -0.0046227482 
   37800    1.2570094  -0.10960769    2.0545056    3.7125673  0.020703923 
   37900    1.1381329  -0.43518281    2.5229099    3.6882265 -0.0021185939 
   38000    1.0928681  -0.12176013     2.317606    3.7326917 0.0013127679 
   38100    1.0195043  -0.14055318    2.5079257    3.8010503 -0.004592832 
   38200    1.2308931 -0.040936018    2.2747896     3.964797 0.0056969817 
   38300    1.3798306  -0.15821508    2.3946909    4.1768627 0.0033174143 
   38400    1.3074782 -0.018767598    2.2562928    4.0761665 0.0032927122 
   38500    1.1257752  0.011789236    2.2973713    3.8922819 -1.8088348e-05 
   38600    1.2222609  -0.16164238    2.4055164    3.9626783 0.00093838054 
   38700    1.2021821  -0.01897824    2.2331823    3.9047727  0.011309489 
   38800    1.1910613  -0.19563677     2.551874    4.0311672 0.0053771749 
   38900    1.2264214  -0.25694847    2.4825356    3.9502421 0.0058804969 
   39000    1.4287711  -0.14975588    2.0668784    3.9263318   0.01011881 
   39100    1.0724954 -0.059263666    2.3888989    3.8378319 -0.0056670851 
   39200    1.0747205   0.20115663    2.3360536    4.0485359 0.0030347599 
   39300    1.2392809 -0.0035425729    2.3893248    4.1285209 -0.0030490194 
   39400    1.3678946   0.14790575    2.1165742    4.1880817 0.0075333744 
   39500    1.2529056  -0.23401211    2.4950879    4.0229742 -0.0016903738 
   39600    1.4048989  -0.40543901    2.4975881    4.0677882 -0.0046767393 
   39700    1.4188651  -0.53515091    2.6036551    4.0637832 -0.0043947405 
   39800    1.4927792   -0.4400658    2.3636735    4.0228284 0.0044853774 
   39900    1.2644399  -0.29745551    2.6057444    4.0864075 0.0023648668 
   40000    1.4216879   0.13788255    2.0079961    4.1451273  0.013747586 
   40100    1.3432765  -0.48550892    2.6593354    4.0628091 0.0084079395 
   40200    1.5786651  -0.27194243    2.3272068    4.2752622 -0.0001795991 
   40300    1.4185905   0.18374213    2.1889673    4.3676024 0.0070822751 
   40400    1.3562302 -0.088818253     2.574148    4.3925284 -0.0021472056 
   40500    1.2968396   0.13944625    2.2980108    4.2611378 0.0045535297 
   40600    1.2195452  -0.15189655    2.5459071    4.1089959 -0.00052873409 
   40700     1.228276   -0.3225396     2.871549    4.2762725 -0.0094516102 
   40800    1.5413197   -0.3249346    2.5929682    4.4355144 -0.0041622643 
   40900    1.3705605    0.1048502    2.6591954    4.6913962 0.00044742426 
   41000     1.567922    0.2304027    2.2851572    4.7204503  0.010090427 
   41100    1.6471052  0.015479971    2.5009819    4.8327035 0.0028424785 
   41200    1.4412159  -0.17241317    2.7977614    4.6520581 -0.0073354314 
   41300    1.5975377   -0.1945772    2.5005697    4.5525299 0.00077376665 
   41400    1.3825588    -0.228252    2.8268859    4.5428572 -7.4092152e-05 
   41500    1.4720397 -0.029668991    2.5565629    4.5969497 0.00029377513 
   41600    1.3572725 -0.012311395    2.7634032    4.6597562 -0.0023373464 
   41700    1.6267055   0.33160677    2.1072997     4.726461  0.021406035 
   41800     1.322779  0.060533155    2.8608014    4.7814926 0.0049059422 
   41900     1.861258   0.31573617     2.209036    5.1421662 0.0093190894 
   42000    1.2954418  0.035421625    3.1101847    4.9673213 -0.011589604 
   42100    1.4119524    0.2736093    2.6558118    4.9149792 -0.0041031889 
   42200     1.341419   0.24154319    2.9931121    5.1210257 -0.0017945994 
   42300    1.8661611  0.054785923    2.5341782    5.2132531 0.0021966966 
   42400    1.4642473   0.52474513    2.5522982    5.1361411  0.010869714 
   42500    1.5661031   0.13922858     2.844972     5.186533 0.0015280646 
   42600    1.3471048   0.31704242    2.8926954    5.1041039 -0.00052087498 
   42700    1.5730979   0.12371566     2.596289    4.9321735 0.0020006817 
   42800    1.3721677   0.32965949    2.5983155    4.8575858  0.013505179 
   42900    1.6009461   0.04471676    2.4957033    4.7917505 0.0040775344 
   43000    1.5163147  -0.33251676    2.8298117    4.6296125 -0.0077607841 
   43100     1.791089  -0.23603724    2.4572439    4.7399256 0.0047145447 
   43200    1.3175315  -0.31203756    3.2167608    4.7575019 -0.0097936719 
   43300    1.2720979  0.039724091     2.953587    4.7821988  0.010246583 
   43400    1.2408655 -0.027981461    2.9128324    4.6298179  0.002120642 
   43500    1.6865886  -0.71095778    2.8576517     4.518459 0.00047051031 
   43600    1.4758958  -0.82130009    3.2463814    4.5005598 -0.0052877617 
   43700    1.4641412  -0.25415667    2.8140888    4.6188807 0.0088827769 
   43800    1.4521052  -0.30840548    2.9263838    4.6600013 -0.0016137148 
   43900     1.505745 -0.036504493    2.5147701    4.5957195 0.00016844746 
   44000    1.0411659   0.55990314    2.4702787    4.4943214  0.020856096 
   44100    1.4068321 -0.020380735     2.547189     4.505166 -0.0013431554 
   44200   0.83351828   0.14829518    2.9848979    4.3053282 0.0041421762 
   44300    1.2120892 -0.079054754    2.8162209    4.4416665 -0.0067261356 
   44400    1.4225211  -0.32992363    2.8547269    4.5252235 -0.0071010241 
   44500    1.5254627  0.040468144    2.3507745    4.5364246  0.023222571 
   44600     1.070768  -0.21756707    3.3782166     4.666417 -0.0035590797 
   44700    1.7986075   -0.3941415    2.6011467    4.7362969 -0.0021328677 
   44800    1.4670229  -0.18658226    2.7735371    4.6499559 0.0087534635 
   44900    1.5486704  -0.28548195    2.8645477    4.7568836 -0.0031291723 
   45000    1.6137693 -0.051400072    2.5571481    4.7751111 -0.0017537265 
   45100    1.3627749  -0.10990194    2.9093031    4.7158033 -0.0071915455 
   45200     1.358439   0.51294957    2.1706238    4.5938782 0.0079877156 
   45300    1.0492623    0.2064187      2.88887    4.5708137 -0.010469993 
   45400    1.6264248   0.10208664    2.2416793    4.6309259 0.0027758975 
   45500    1.4235712  -0.24130711    2.7959981     4.556588 -0.0029737019 
   45600    1.3449989  -0.33472461    2.7521061    4.3087862 -0.0074717496 
   45700    1.3729587  -0.16697123    2.5934636    4.3572155 0.00053809429 
   45800    1.2590026  -0.18230051    2.7132986    4.3014705 0.0018097815 
   45900    1.5748653  -0.18706154    2.1393963    4.1669891  0.011278556 
   46000    1.3886929  -0.76408656    3.1995099    4.3882727 -0.010609008 
   46100    1.8969024  -0.44819638    2.2225184    4.4418411 0.0095515572 
   46200    1.5679199  -0.30768522     2.348009    4.2452112 0.0095380454 
   46300    1.5704795   -0.5735563    2.7442873    4.3792178 -0.0057990982 
   46400    1.3342679  -0.50936168    3.1351764     4.502129 -0.0029981111 
   46500    1.5670868  -0.13290394    2.3683603    4.4391723  0.014450951 
   46600    1.1247905  -0.12436068    3.1168258    4.5742018 -0.0077508636 
   46700    1.3996317   0.11263711    2.5185627    4.5994319 0.0036266849 
   46800    1.3438184   0.33605354     2.389264    4.6150622 0.0071055972 
   46900    1.3813268  0.062300409    2.7653071    4.7700983 -0.0068057863 
   47000    1.1657934    0.3038756    2.7714953    4.7147679 0.00084595161 
   47100    1.2985272   0.07437373    2.8342983    4.7347259 -0.0050784587 
   47200    1.3530409   0.15940065    2.4904332    4.5525475 0.0060377155 
   47300     1.068743   -0.1814863    3.1502636    4.4716971 -0.012687681 
   47400    1.3683229 -0.050500936    2.4492874    4.3229905 0.0061327644 
   47500    1.1662314   -0.2202849    3.0147795    4.4345075 -0.0028947059 
   47600    1.1662933  -0.37416051    2.9931798    4.2591191 -0.0046168681 
   47700    1.0547607  0.014316583    2.6298649    4.1274387 0.0018081177 
   47800   0.98996502   0.10644836    2.5363667    4.0349534 -0.0026865069 
   47900   0.78750052   0.65308996    2.2341509    3.9946635  0.012431816 
   48000   0.78733951  0.079096995    2.9690547    4.1553479 -0.012965533 
   48100    1.0336961   0.31747213    2.4316312    4.2027384 0.0029444766 
   48200    1.1159481   0.02555465     2.738185    4.3330417 -0.0071691704 
   48300    1.3759208  0.029499703    2.3278557     4.292244  0.026101832 
   48400    1.2175012  -0.20748557    2.8948184    4.3994439 -0.0075981115 
   48500    1.1980768   0.10845251    2.7078364    4.5010844 0.0041718695 
   48600    1.2664976   0.65567127    2.1352207    4.5719042  0.018423781 
   48700   0.71016785   0.61557395    2.8994284    4.5136759 -0.00082910041 
   48800   0.94366041   0.93045364     2.182593    4.4400691   0.01002158 
   48900      1.02098   0.37915926    2.7087964    4.5237088 -0.0068850013 
   49000    1.2775439  0.026646915    2.7627883    4.5859812 -0.0084242443 
   49100    1.2192063   0.65526453    2.2282894    4.5980629  0.010480121 
   49200    1.0398809    0.5159189    2.5634407     4.541692 0.00025436999 
   49300    1.2261255   0.25636707    2.7313342    4.7119402 0.0020181298 
   49400     1.390253   0.27714628    2.4924791    4.7246688 0.0011483111 
   49500    1.5382561   0.10179517    2.4675836    4.7325514 0.0032507774 
   49600    1.6438256  -0.13166387    2.3612093    4.5411751 2.8336578e-05 
   49700    1.5155027  -0.20791141    2.8370854    4.7603496 -0.0031176379 
   49800    1.8491527 -0.0076352273     2.351661    4.9443968 0.0095077863 
   49900    1.4971306 -0.046082281    2.6796158    4.7388733 0.00020643366 
   50000    1.7773966  -0.24614451    2.4753491    4.7286686 0.0064625049 
Loop time of 9.99492 on 1 procs for 50000 steps with 16 atoms

Pair  time (%) = 0.188084 (1.8818)
Bond  time (%) = 0.01436 (0.143672)
Kspce time (%) = 9.59308 (95.9795)
Neigh time (%) = 0.0244722 (0.244847)
Comm  time (%) = 0.0641284 (0.64161)
Outpt time (%) = 0.0262711 (0.262844)
Other time (%) = 0.0845258 (0.845688)

Nlocal:    16 ave 16 max 16 min
Histogram: 1 0 0 0 0 0 0 0 0 0
Nghost:    98 ave 98 max 98 min
Histogram: 1 0 0 0 0 0 0 0 0 0
Neighs:    88 ave 88 max 88 min
Histogram: 1 0 0 0 0 0 0 0 0 0

Total # of neighbors = 88
Ave neighs/atom = 5.5
Ave special neighs/atom = 0.875
Neighbor list builds = 3010
Dangerous builds = 0

# Run without indenter
# unfix           4
# run		30000
