LAMMPS (9 Jan 2009)
# polymer simulation

units		lj
boundary	p p p
dimension	3

atom_style	full
neighbor	0.3 bin
neigh_modify	delay 5

read_data	data.polymer		# load volume dimensions, masses, atoms, and bonds
  1 = max bonds/atom
  orthogonal box = (0 0 0) to (12.5992 12.5992 12.5992)
  1 by 1 by 1 processor grid
  32 atoms
  15 bonds
  2 = max # of 1-2 neighbors
  2 = max # of 1-3 neighbors
  4 = max # of 1-4 neighbors
  6 = max # of special neighbors

pair_style	lj/cut/coul/long 1.12246204830937 12 # LJ_cutoff=2^{1/6}  [ coulomb_cutoff ]
pair_coeff	* * 1.0 1.0		# < atom_type1 atom_type2 epsilon sigma [ LJ_cutoff coulomb_cutoff ] >
pair_modify	shift yes		# LJ interactions shifted to zero
kspace_style	ewald 1.0e-4		# desired accuracy
# LAMMPS coulombic energy is (q1 q2) / (\eps r)
# bjerrum length is (\lambda_B = 3)
# temperature is (k T = 1.2)
# so dielectric is (1 / (1.2 * 3))
dielectric	0.2777777777777

bond_style	fene
bond_coeff	* 7 2 0 0		# < bond_type K R0 fene_epsilon fene_sigma >
special_bonds	lj/coul 1.0 1.0 1.0  	# turn on regular interactions between all monomers (even bonded ones)
  2 = max # of 1-2 neighbors
  2 = max # of special neighbors

# apply newtons equations
fix		1 all nve
fix		2 all langevin 1.2 1.2 10.0 699483 # < ID group-ID langevin Tstart Tstop damp seed [keyword values ... ] >
#fix		3 all setforce NULL NULL 0.0	   # enforce 2d

# run
timestep	0.003
thermo		100				# output thermodynamic quantities every 1000 steps
dump		1 all atom 100 dump.polymer	# < ID group-ID style every_N_timesteps file args >
dump_modify	1 image yes
# dump_modify	1 image yes scale no

run		50000
Ewald initialization ...
  G vector = 0.227629
  vectors: actual 1d max = 40 2 62
Memory usage per processor = 1.89378 Mbytes
Step Temp E_pair E_mol TotEng Press 
       0            0    1.8102769    1.9017955    3.7120723   0.10125074 
     100   0.40927124    1.1761325    2.0181649    3.7890197  0.064391514 
     200       1.0278  -0.17636914    2.4475649    3.7647177 -0.0040450055 
     300     1.369229  -0.60449063    2.3735381    3.7587083 0.0072402266 
     400    1.2443224   -0.7787279    2.5454003    3.5748284 -0.0046788297 
     500    1.1474206  -0.76735166    2.5881787    3.4881725 -0.010849023 
     600    1.1252027  -0.63977767     2.535211    3.5304935 -0.0030093082 
     700    1.3049072  -0.79620374    2.6225776    3.7225672 -0.0081919805 
     800    1.1254025  -0.57735688    2.5711862    3.6291798 0.0019198237 
     900   0.97505216  -0.50546791    2.6912325    3.6026372 -0.011190156 
    1000    1.0518816  -0.28590041    2.2609393    3.5035543 0.0074217634 
    1100     1.013535  -0.47283342     2.489374    3.4893336 0.0015111264 
    1200    1.0581786  -0.65143053    2.7125299    3.5987651 -0.0064083528 
    1300      1.23495   -0.5344212    2.5249433    3.7850588 -0.0046605972 
    1400    1.1779753  -0.49146808    2.5328338     3.753111 0.00040189891 
    1500     1.000057  -0.38564945    2.6117975    3.6793559 -0.0091129898 
    1600    1.0498132  -0.25321242    2.5043788    3.7766762 0.0080217564 
    1700    1.1056004  -0.40276967    2.5366609    3.7404668    0.0020606 
    1800    1.2023276   -0.4966143    2.4908974    3.7414154 0.0097829217 
    1900    1.1857458  -0.53192392    2.5033321     3.694445  0.027215107 
    2000     1.237724  -0.44592993      2.39278    3.7454178 0.0085238694 
    2100   0.98112455  -0.36216533    2.6521617     3.715693 0.0015927472 
    2200    1.2415564  -0.40281577    2.3602748    3.7615956   0.01822613 
    2300    1.1657493  -0.68068657    2.7860145    3.7993075 -0.0083256947 
    2400    1.1736527  -0.46193186     2.636239    3.8797712 0.0063880073 
    2500    1.2400348  -0.64027999    2.7843992    3.9460448 0.0072607365 
    2600    1.2693558  -0.63756706    2.5917809    3.7987465  0.011283181 
    2700    1.2343544  -0.54696382    2.6183752    3.8650827  0.012274667 
    2800    1.0892887  -0.52326389    2.7636927    3.8233015 0.0078505677 
    2900    1.1878658  -0.54471385    2.6678208    3.8492245 0.00082579977 
    3000    1.5460169   -0.9307471    2.5775764    3.8933851 0.0084288407 
    3100    1.3477272  -0.85764659    2.6685857    3.7693551 -0.0028846693 
    3200    1.2782402  -0.54219983    2.5922882    3.9075311   0.01559678 
    3300    1.2327655  -0.51978318    2.6279139    3.8994931 0.0032942066 
    3400    1.1420211  -0.38811143    2.7012383    3.9726263 0.00085175234 
    3500    1.0242837  -0.21388761    2.6195229    3.8940475 0.0090466369 
    3600      1.05549  -0.41803336    2.7289533    3.8446789 0.00012695282 
    3700    1.1521192  -0.51396334      2.67909    3.8392999 -0.0048842741 
    3800    1.2165231  -0.56696437    2.5261456    3.7269413 6.7598035e-05 
    3900    1.1115275  -0.55311239    2.6154166    3.6774926 0.0072343839 
    4000    1.2169864  -0.68896606    2.5189553    3.5984226  0.016984146 
    4100   0.91044719   -0.7132296    2.9844152    3.5941792 -0.010311187 
    4200    1.0508643  -0.30284533     2.282905    3.5070969  0.023975499 
    4300   0.92922429  -0.68750292     2.784255    3.4470311  -0.01331063 
    4400    0.9882128  -0.29739164    2.2925051    3.4311101  0.011069268 
    4500   0.82061634  -0.49395619    2.7988436    3.4973455 -0.011363217 
    4600     1.031395  -0.48218038    2.5742963    3.5908618 0.0054319247 
    4700    1.0200305  -0.52777556    2.6960172    3.6504735 0.0086810821 
    4800    1.0022833  -0.41424132    2.5781379    3.6203396 0.0061446594 
    4900   0.96101389  -0.60825653    2.8532974    3.6415142 -0.016058658 
    5000    1.2631555  -0.39985603    2.2763522     3.712019  0.016633131 
    5100   0.91696466  -0.61284493    2.8607076     3.580327 -0.0070638487 
    5200    1.0737417  -0.54986694    2.5869433    3.5973573 -0.003647887 
    5300     1.056415  -0.50025118    2.5773618    3.6122136 0.0034445034 
    5400    1.0372406  -0.53057311    2.7469364    3.7236036 -0.010916818 
    5500     1.103123  -0.56883811    2.6783024    3.7124398 -0.0018051168 
    5600    1.0596578  -0.42187689    2.5033653    3.6213035   0.01463091 
    5700    1.0501598  -0.70666341    3.0325269    3.8518769 -0.007618234 
    5800    1.3099516   -0.6908395    2.6947969    3.9074807 0.0008357105 
    5900    1.1233272  -0.61674146      2.91434    3.9299333 -0.010268249 
    6000    1.3632041  -0.41352613    2.4612277    4.0286074   0.02288407 
    6100    1.1324856  -0.55508642    2.8808208    3.9713775 -0.0054624931 
    6200    1.4194227  -0.45101372    2.4089761     4.020561  0.019856218 
    6300     1.135485  -0.58700209    2.8984594    3.9614591 -0.014217702 
    6400    1.4801393  -0.46271925    2.3011274    3.9892355  0.027670043 
    6500    1.2211664   -0.6401348    2.7228362    3.8572088 -0.003925403 
    6600    1.1131139  -0.50364221    2.8228982    3.9367496 -0.0052798832 
    6700    1.0223766  -0.41919786    2.9671469    4.0335901 -0.017821011 
    6800    1.0705075  -0.14674902    2.6921126    4.1009448 0.0030007792 
    6900    1.0389564    0.1861911    2.4693898    4.1653144  0.019853004 
    7000    1.2546634  -0.19669929    2.6110198    4.2375033  0.010836182 
    7100     1.169233  -0.35045704    2.9088453      4.25743 -0.0056206842 
    7200    1.3748896  -0.35516293    2.7593399    4.4020634 0.0019699074 
    7300    1.4247048  -0.35341123    2.7325785    4.4494413 -0.0011064803 
    7400    1.4684794   -0.4059857    2.8802348    4.6081332 -0.010275306 
    7500    1.6253335  -0.42985485    2.7427395    4.6746975 0.0064132239 
    7600    1.6257757  -0.22769296    2.6727126    4.8074749  0.013994352 
    7700     1.254242  -0.11562756    2.9667182    4.6736611  0.010641396 
    7800     1.286055  -0.24433884    2.9771522    4.6016121 -0.0035241565 
    7900    1.3784382  -0.33925529    2.8945674    4.5583551 -0.008405666 
    8000    1.3400215  -0.19150631    2.7364417    4.4921541 -0.00013528538 
    8100    1.4588698  -0.28721674    2.6872168    4.5199203  0.014339173 
    8200    1.4542662  -0.39296672    2.8447224    4.5649862 0.0078089346 
    8300    1.5194718  -0.19765594    2.5809785     4.591305 0.0089935763 
    8400    1.3251798  -0.11260805    2.5785536    4.3915975 0.0029551676 
    8500    1.0408065  -0.17799433    2.9845883     4.319016 -0.0094093868 
    8600    1.3293989  -0.19156187    2.6816316    4.4218525 -0.0099304126 
    8700    1.4121774  -0.19694798    2.5595552    4.4146775 0.0038816081 
    8800    1.3065999  -0.28253819    2.8905782     4.506693 -0.0067550872 
    8900    1.5897017   -0.4024879    2.6398326    4.5473799 -0.0055860806 
    9000    1.3931811  -0.46431746    2.9217933    4.4819421 -0.0094171014 
    9100    1.5661039  -0.32367471    2.5586582    4.5107282 0.0025530486 
    9200    1.3399373  -0.20051329    2.7545976    4.5011807 -0.001571947 
    9300    1.2539575  0.026563447    2.6174689    4.4661894  0.007397687 
    9400    1.0950752   0.17000922     2.546106    4.3073964 -0.0040587656 
    9500    1.0820587   0.14398141    2.6330175    4.3493655 0.0044577093 
    9600    1.2054148  0.053835458    2.6142231    4.4196769 0.0097979501 
    9700     1.255477  -0.29273076    2.8007927    4.3324269 -0.0089251935 
    9800    1.3935867  -0.29213636    2.8533106      4.58623 -0.0032791443 
    9900    1.4189826  -0.22723379    2.7166314    4.5513567 0.0012425595 
   10000    1.4212989 -0.078549017    2.4764656    4.4632416  0.023069497 
   10100    1.3498026  -0.16772538    2.6582963    4.4520028 0.0024089323 
   10200    1.3357038  -0.22884451    2.6947563    4.4068563 0.0034906729 
   10300    1.4348881  -0.24362797    2.4676586    4.3091024  0.022061977 
   10400    1.3103947   -0.5382632    3.1732702    4.5391743 0.0039901435 
   10500    1.4137589  -0.49842455    2.9559458    4.5118897 0.0065987559 
   10600    1.5805039  -0.38824886    2.4932378    4.4016587  0.012435337 
   10700    1.2480935  -0.40387699    2.8309219    4.2406807   -0.0158644 
   10800    1.1350902  -0.22579315    2.7808559    4.2044907 -0.0053610364 
   10900    1.1675567  -0.24865006    2.9664037    4.4143595 -0.014926597 
   11000    1.1659902   0.17688175    2.4442855    4.3154967  0.027465033 
   11100    1.1291422  -0.20276607    2.7881356    4.2261543 -0.0078837115 
   11200    1.2967277     -0.31971    2.7197658    4.2843632 -0.0050798489 
   11300     1.284809  -0.20904964    2.6868705    4.3448089 0.0098941253 
   11400    1.1796947  0.082850784    2.5025719    4.2996665 0.00031955111 
   11500    1.0061758   0.13466058    2.6520016    4.2487615 0.00092781411 
   11600    1.2593387  0.099953795    2.5274234    4.4573537 0.0039914209 
   11700    1.2276891  0.083843867    2.6428491    4.5106787  0.010065661 
   11800    1.2719582 -0.012118369    2.6946593    4.5308553  0.014824868 
   11900    1.3865681  -0.33418536    2.7658825     4.446554 -0.0048266506 
   12000    1.6159236   -0.4542664    2.5468911    4.4407637 0.0090905745 
   12100    1.4461523  -0.57263538     2.923878    4.4526827 -0.001109445 
   12200    1.6277349  -0.54551376    2.6158251    4.4356136  0.012530472 
   12300     1.286627  -0.44454243    2.8204331    4.2455206 -0.0056116062 
   12400    1.3298325  -0.39317645     2.726727    4.2659634 -0.00031933171 
   12500    1.4549827   -0.4898402    2.6676494    4.2920809 -0.0022015243 
   12600    1.1101394 -0.047182933    2.5934479    4.1594363 0.0094155006 
   12700    1.1597149 -0.059769358    2.6097438    4.2351851 -0.0032172113 
   12800    1.2192337  -0.19715945    2.7216933    4.2962329 -0.00062640878 
   12900    1.2986194  -0.11191171    2.5615827    4.3367273  0.029808261 
   13000    1.4970114  -0.36717602    2.7475528    4.5557215 0.0064690902 
   13100     1.440836  -0.40586845    2.8561926     4.544039 0.0036591884 
   13200    1.4001601 -0.015845277     2.459141    4.4779034  0.023251082 
   13300    1.0009189  -0.12097205    2.8824078     4.215896 -0.0044833871 
   13400    1.1221816  -0.12489981    2.6334644    4.1392348 -0.0037990038 
   13500    1.2269776  -0.17092755    2.4613955    4.0734197  0.019688531 
   13600    1.1369103  -0.53218542    3.0222925    4.1421799 -0.018311232 
   13700    1.3610152  -0.26462678     2.530786    4.2438844 0.0052446202 
   13800    1.2068968  -0.16884184    2.6771209     4.262051 -0.0032860929 
   13900    1.3556312  -0.19070794    2.5314897    4.3106834  0.017914023 
   14000    1.1272901  -0.36778113    2.9064559    4.1767682  0.002863793 
   14100    1.2378847 -0.043729861    2.4812214    4.2362928  0.013437578 
   14200    1.2569209  -0.38740879    2.8742288    4.3132832 -0.0065062053 
   14300     1.223253  -0.32931376    2.6975825    4.1458083 0.0028378677 
   14400    1.1666539  -0.36560606    2.7595166    4.0892045 -0.0069547736 
   14500     1.385736   -0.4884571    2.6797398    4.2049304 0.0055078132 
   14600    1.2816134  -0.30780538    2.6151522    4.1696912  0.014898365 
   14700    1.0871239  -0.30870253    2.7456125    4.0166369 -0.0093160732 
   14800    1.0347731  0.081903047    2.2462008    3.8317585  0.014768161 
   14900   0.90846623  -0.26750413    2.8206345    3.8732454 -0.020460834 
   15000    1.0282637  -0.18460185    2.5893841    3.8989779 0.0032805969 
   15100    1.2348662  -0.48614009    2.6770665    3.9853414 -0.0075981644 
   15200    1.3768245  -0.47363565    2.3695486    3.8966111  0.016430708 
   15300     1.055604   -0.7633703    3.1275651    3.8981193 -0.026623069 
   15400    1.3209534  -0.24999084     2.315536    3.9850556  0.024585873 
   15500    1.1075012  -0.34745165    2.8570372    4.1189233 0.00024855034 
   15600   0.98679068  -0.15166713    2.7395876    4.0218506 -0.008970232 
   15700   0.98652984  -0.16819718    2.7454578    4.0108118 0.0029426929 
   15800    1.1589933  -0.41662221    2.7156053    3.9831452 9.023505e-05 
   15900    1.2304574   -0.4888079    2.6907355     3.989936  0.016809598 
   16000     1.243913  -0.57935189    2.7078505    3.9360596 0.0049191746 
   16100     1.225724  -0.47684311    2.5717558    3.8760429  0.001006196 
   16200    1.0980998  -0.54233942    2.8368489    3.8901858 -0.0014345901 
   16300    1.3732808  -0.70621132    2.4720853    3.7614226  0.007944841 
   16400    1.3433015  -0.84786236    2.7601827    3.8643053 -0.0061251554 
   16500    1.1704928   -0.5424689    2.7449751    3.9033784 0.0055993516 
   16600    1.0873257  -0.78146958     3.262112    4.0606626 -0.015691785 
   16700    1.4165426  -0.43412497    2.3768198    4.0011083  0.024121519 
   16800    1.1108128  -0.43525204    2.8385578    4.0174556 -0.0090677278 
   16900    1.3087456  -0.32669886    2.4936486    4.0687207 0.0071855829 
   17000    1.3514763  -0.48631693    2.6330032    4.1105502 0.0069674483 
   17100    1.3792248  -0.47622954     2.577008    4.1049645 0.0082069652 
   17200    1.3481595   -0.4847352    2.6103197    4.0846288 -0.0048962788 
   17300    1.3017028  -0.55060636    2.7186906    4.0596211 -0.013453577 
   17400    1.3243131  -0.55898393    2.7245817    4.0899902 -0.0074917916 
   17500    1.2366085   -0.2297798    2.5969256    4.1640926  0.019895626 
   17600    1.2356974  -0.23807788     2.611151    4.1686959 -0.0010468089 
   17700    1.2484635 -0.080769483    2.4026064    4.1360104  0.017987256 
   17800    1.0385442  -0.31319725    2.9103676    4.1063049 -0.012672253 
   17900    1.0586421 0.0093800797    2.4668162    4.0145357  0.016285048 
   18000    1.1417445  -0.25235448    2.6995994    4.1063424 0.0038750611 
   18100    1.0952607   -0.3199391    2.7631931    4.0348047 -0.0045525183 
   18200    1.1988602  -0.32435249     2.690068    4.1078093 0.0011457683 
   18300    1.1903765  -0.42497337    2.8685886    4.1733811 -0.008109762 
   18400    1.0513511  -0.33143595    2.8746134     4.070922 -0.002642609 
   18500    1.1953824  -0.59989935    2.9610211    4.0981617 -0.021146965 
   18600     1.295953  -0.44567836    2.7086845    4.1461879 0.0012487404 
   18700    1.2557645  -0.36051193    2.6678475    4.1321184  0.006875845 
   18800      1.25061  -0.58854737    2.8312452    4.0599905 -0.011651892 
   18900    1.1183135   -0.3941114    2.6881155    3.9190534   0.01443185 
   19000     1.127314  -0.65388519    2.9770804    3.9613233 -0.0082514251 
   19100    1.3257237  -0.47289418     2.509771     3.963319  0.015221638 
   19200    1.1899466   -0.5202578    2.7395288    3.9484121 -0.0055036262 
   19300    1.2191047  -0.40222309    2.8155254    4.1848138 0.0083469744 
   19400    1.2727868  -0.12571924    2.6657889    4.3895879  0.013784885 
   19500    1.2704057  -0.24463904    2.7998098     4.401229 0.00028389941 
   19600    1.3277217 -0.098128599    2.5319403    4.3631573  0.018923784 
   19700    1.2401012  -0.22961017    2.6557447    4.2281566  0.013064862 
   19800    1.3777596   -0.3467611    2.7063201    4.3616159 0.0011673132 
   19900    1.5329317  -0.54734336    2.6271403    4.3073383 -0.0014376662 
   20000    1.4749854  -0.55146636     2.703062    4.2949338 0.0034288472 
   20100    1.6283199  -0.62890899    2.5505319    4.2877753 0.0069062744 
   20200    1.1975492  -0.44289866    2.8716458    4.1689359 0.0032931102 
   20300    1.1252931  -0.15968663    2.6424133    4.1179182 0.0097783953 
   20400    1.2403287  -0.25467935    2.6222502    4.1699234 -0.0034324803 
   20500    1.4548181  -0.19582159     2.374247     4.292458  0.028551791 
   20600    1.3172798  -0.45405367    2.7668719    4.2269904 -0.008382853 
   20700    1.2851373   -0.4086606    2.6538642    4.1126687  -0.00724237 
   20800    1.0599697  -0.17486563    2.6522116    4.0176144 -0.0045314687 
   20900    1.1990032 -0.062975528    2.4715701    4.1508961 0.0077711795 
   21000    1.1064887  -0.17342543    2.7244283    4.1588692 -0.010894703 
   21100    1.2635883  -0.24435603    2.5338808    4.1256765 -0.000751423 
   21200     1.446558  -0.46844575    2.4810835    4.1146674  0.011846196 
   21300    1.2845066  -0.39210649    2.7435532    4.2179953 -0.0087294636 
   21400    1.4875507  -0.39886561    2.6258984    4.3886299 0.00034773529 
   21500    1.3662526  -0.25231983    2.6203104    4.3533264 0.0051389156 
   21600    1.6860005  -0.39226866    2.5151682    4.5728691   0.01221883 
   21700    1.4215166  -0.19736535     2.689674    4.5579499  0.012878063 
   21800    1.3700437  0.047357565    2.6138788    4.6520811  0.010696114 
   21900    1.3872399  0.071334669    2.5056406    4.5928083 0.0049686868 
   22000    1.4539644  -0.16243812    2.5819084    4.5322624 0.0098373653 
   22100    1.5020347   -0.5987901    2.9361459    4.5200001 0.0015768781 
   22200    1.3814833  -0.44384704    2.9602259    4.5238468  0.014599619 
   22300     1.328684  -0.45629529    3.0421038    4.5165525 -0.003058563 
   22400    1.2831476  -0.40662381    2.9684985    4.4264485 -0.0059115006 
   22500    1.4617347   -0.5143971    2.7790402    4.3887263 -0.0039956138 
   22600    1.4391796  -0.24568898    2.5738266    4.4194454  0.028162847 
   22700    1.4114777  -0.18858696    2.5942025    4.4566691   0.01842451 
   22800    1.3471458  -0.32765322    2.7811271    4.4110451 0.0027103917 
   22900    1.2917788  -0.48954705     2.902848     4.290417 -0.010507065 
   23000    1.5513394  -0.37001985    2.4541966    4.3384668  0.016953485 
   23100    1.4406271  -0.32670932    2.5146236    4.2813256  0.013538462 
   23200    1.3949069  -0.35446703     2.689549     4.362056 -0.0045246462 
   23300    1.0795929  -0.21057821    2.8289621    4.1871673 -0.016366616 
   23400    1.0652887  0.018172807    2.6038836     4.170054 -0.0020018761 
   23500    1.0386322 -0.008456332     2.589776    4.0905821 0.0054590292 
   23600    1.1343324   -0.4230226    2.8621076    4.0874118 -0.017950441 
   23700     1.055876  -0.19851421    2.7130522    4.0488577  0.022580469 
   23800    1.1682559  -0.25423693    2.5978386    4.0412235 0.0020997437 
   23900     1.021185  -0.16572412    2.7494004    4.0675858 -0.010317212 
   24000    1.1282119 -0.041446994    2.5240305    4.1220164 0.0056526259 
   24100     1.039574 -0.034427359    2.7469572    4.2231608 -0.0041054324 
   24200    1.0690195   0.19841557    2.5308342    4.2826687  0.019012427 
   24300    1.2383368  -0.34993394     2.836677    4.2862012 -0.011285425 
   24400    1.3073791  0.051113183    2.3855275    4.3364259  0.024438098 
   24500    1.0289761  -0.14598899    3.0229248    4.3721667  -0.02031249 
   24600    1.1377882   0.12130419     2.543431    4.3180837 -0.0025423036 
   24700   0.99864592   0.32901257    2.5394901      4.31966 0.0029678006 
   24800    1.1861484   0.25924215     2.455228     4.438092 0.0098869683 
   24900    1.2138204   0.27317081    2.5665887    4.6035924  0.010304878 
   25000    1.4632245  0.097223722    2.2643046    4.4877764  0.036018713 
   25100    1.3599275  -0.50885239    2.8664676    4.3337599 -0.0095672643 
   25200    1.2584618  -0.23732349    2.7071288    4.2985076 0.0028064294 
   25300    1.1567898  -0.22127966    2.7270702    4.1867506  0.004340967 
   25400    1.3969224  -0.46427813    2.6573317    4.2229565 -0.0087923042 
   25500    1.3863834  -0.46549478    2.8272786    4.3763722 0.00078154904 
   25600    1.4910687  -0.39594174     2.592463    4.3632305  0.010928447 
   25700    1.4356986  -0.53235993    2.7829997    4.3368893 -0.001344341 
   25800     1.466663  -0.41907482    2.5940315    4.3062014  0.013941063 
   25900    1.2661818  -0.50577405    2.9306656     4.264812 -0.0041666323 
   26000    1.1644092  -0.26059873    2.7610773    4.1925107 -0.0056905859 
   26100    1.0023166 -0.055279166    2.7816661    4.1828782 -0.0054106837 
   26200     1.101503  -0.15546677    2.8003439    4.2454987 -0.011089291 
   26300    1.2656793  -0.17615898    2.4716382    4.1346695  0.015000652 
   26400    1.3189392  -0.53323053    2.7952244    4.1785773 0.0013926582 
   26500     1.198652  -0.28710671     2.692927    4.1476115 -0.0019732748 
   26600    1.1938914  -0.25002035    2.5610206    4.0458737  0.010635536 
   26700    1.3110426  -0.50075443    2.8470838    4.2514381 -0.002580285 
   26800    1.4605586  -0.37856752     2.560187    4.3039937  0.012532107 
   26900    1.2512684  -0.37809544    2.8508191     4.290973 -0.0049532957 
   27000    1.3607817  -0.26911766    2.6374844    4.3457527 -0.0010444651 
   27100    1.4310556   -0.2861631    2.5593186    4.3526582 0.0081588611 
   27200    1.2352035  -0.38241889    2.6548146    4.0673008 -0.0040714812 
   27300    1.1743758  -0.47904922    2.8175296    4.0449952  -0.01643495 
   27400     1.407101 -0.071332736    2.1722999    4.1456608  0.038319631 
   27500    1.4350949  -0.60357956    2.6727364    4.1545291 -0.0022925095 
   27600     1.098285  -0.36281993    2.8814818    4.1146073 -0.0080624317 
   27700     1.299976 0.0038975537    2.2384517    4.1313769  0.021279301 
   27800    1.1678047  -0.24284065    2.7908659    4.2449914 -0.0021158876 
   27900    1.3496214  -0.11144706    2.4283844    4.2781059  0.015452106 
   28000    1.2384378  -0.34263069    2.9306813    4.3876555 0.0047837625 
   28100     1.284545  -0.37429701    2.8071052    4.2994126 -0.0012748904 
   28200    1.4173706  -0.58456185    2.8271491    4.3022039  0.003279849 
   28300     1.382874  -0.56469599    2.8537604    4.2985533 -0.0013443716 
   28400     1.316293 -0.072553276    2.4417098    4.2818948  0.022518008 
   28500    1.0976634  -0.41671323    2.9764228    4.1547516 -0.013607624 
   28600     1.287017  -0.25732194    2.6440063     4.256881 0.0086232836 
   28700    1.1851499  -0.20960643    2.7138577    4.2264222 -0.0062780438 
   28800    1.4454971  -0.63634002     2.719811    4.1839589 0.00053060727 
   28900    1.4012699   -0.7476471    2.8308254    4.1193986  0.008635852 
   29000    1.7560902  -0.93681096    2.6632173    4.2782249  0.010227803 
   29100    1.3958724  -0.79789157    2.9752488    4.2057343 0.0039010195 
   29200     1.374498  -0.57955104    2.8451207    4.2628871 -0.00024995985 
   29300      1.20092  -0.33107657     2.819865    4.2338754 0.0067048975 
   29400     1.265011  -0.43519655    2.9094047    4.3124273 0.0043787898 
   29500    1.3448754  -0.75516567    3.0632616     4.262368 0.00019674325 
   29600    1.5765171  -0.55809357    2.5532515    4.2860343  0.016693264 
   29700    1.1872225  -0.28390611    2.7982833    4.2395599   0.01074552 
   29800    1.3470103  -0.65800673     2.865654    4.1650216 -0.0021998167 
   29900    1.3071634  -0.47423069    2.7429792    4.1682203 -0.0001700663 
   30000    1.3783282  -0.39860082    2.5138556     4.118138  0.005189577 
   30100    1.2029517  -0.39646574    2.7181259    4.0696994 0.0010359921 
   30200   0.89257219  -0.26060685    2.8907015    3.9271136 0.0015098957 
   30300    1.0687725  -0.24478118    2.5608178    3.8690967  0.018769693 
   30400   0.92151891  -0.42284554    2.7440479    3.6602845 -0.0012880473 
   30500    1.2396586  -0.60737668    2.6553287    3.8493309 -0.00092300065 
   30600    1.1278435  -0.57940418    2.8838089    3.9433023 -0.011737607 
   30700   0.98268763  -0.10230157    2.6197524    3.9454188 0.0065196347 
   30800     1.000188  -0.24573395    2.8595669    4.0672312 -0.016821262 
   30900    1.1484244 -0.052253578    2.5016757    4.1182264 0.0059693137 
   31000     1.157947 -0.055777181    2.6064377    4.2333023 9.9491741e-05 
   31100    1.1416531 -0.024727973    2.6035279    4.2377646 0.0010565802 
   31200   0.94718303  -0.13792741    2.9523016    4.1907495 -0.012784532 
   31300    1.0363223   0.34414886    2.2039788    4.0540334  0.038963847 
   31400    1.0428875  -0.18980791    2.7056153    4.0312534 0.0015493395 
   31500    1.1703597  -0.39208391    2.7082689     4.016864  0.004447198 
   31600    1.2270881  -0.31883968    2.5730183     4.037291  0.007989204 
   31700    1.0775653  -0.20499318    2.6043244    3.9651684 -0.0019992826 
   31800    0.9824477    0.1823002    2.4409861    4.0509056  0.025594764 
   31900    0.9745207 -0.025443645    2.5295309    3.9201876 -0.0016114078 
   32000   0.93807391 -0.036447149    2.5994493    3.9261408 0.00063129592 
   32100    1.0666531 -0.086439971    2.5364013    3.9999417 -0.0051210152 
   32200     1.063236 -0.077451111    2.6889632     4.156527 -0.0053294864 
   32300    1.2866979  0.057101187    2.2036774    4.1305116  0.018451301 
   32400    1.1094173  -0.25900795    2.8152024    4.1683165  -0.01288071 
   32500    1.3567732   -0.3401634    2.5618626    4.1932602 0.0044884217 
   32600    1.2987827  -0.23605802     2.556625    4.2078605 0.00057573539 
   32700    1.1205954  -0.41019492    3.0171661    4.2353364 -0.014152301 
   32800    1.4079515  -0.04469999    2.3026945    4.3039241  0.021347435 
   32900    1.2552777  -0.36272059    2.8319261     4.293281 -0.0095630646 
   33000    1.3766668  -0.13762342    2.4917011    4.3545467  0.029767629 
   33100    1.2407369  -0.57600735     2.961939    4.1888774 -0.0015486614 
   33200    1.3309948  -0.58726248     2.716633    4.0634724 -0.010050155 
   33300    1.2494516  -0.29691764    2.7010225    4.2197142 -0.0022382838 
   33400    1.5388507  -0.43492627    2.5380703    4.3392865 -3.4138962e-05 
   33500    1.2637128  -0.52933512    2.8603995    4.1673971 -0.0064113575 
   33600    1.1299154  -0.49825988    2.8941482    4.0377967 -0.010778911 
   33700     1.353677  -0.49884673    2.5753209    4.0435361 0.0012302042 
   33800    1.3585004  -0.40345833    2.5080592    4.0786718 0.0030672618 
   33900    1.2466385  -0.48592277    2.7998966    4.1254954 -0.0049100196 
   34000    1.2944949  -0.32978515    2.5391156    4.0903934 0.0096438005 
   34100    1.2906213  -0.44320971     2.859697    4.2919213 -0.014584066 
   34200    1.3529096  -0.24986865    2.4988388     4.214917 0.0065309846 
   34300    1.3461125  -0.37837012     2.661449    4.2391486 0.0053532684 
   34400    1.3084376  -0.44409568    2.7446153     4.201843 0.0038576331 
   34500    1.2633105  -0.39965856    2.6666615    4.1027511  0.011274416 
   34600    1.3420073  -0.62395902    2.8250322    4.1511775 -0.0064170807 
   34700    1.3014798  -0.54190903    2.7617798    4.1110837 -0.0039829975 
   34800    1.3442966  -0.49755831    2.6283477    4.0842203 -0.0017605405 
   34900    1.2407038  -0.61394373    2.8807839    4.0697379 -0.001000179 
   35000     1.462874  -0.42387418    2.5556895    4.2575541  0.025386949 
   35100    1.5556802  -0.55988346    2.5619133    4.2626277 0.0082452431 
   35200    1.1875846   -0.2222452    2.6736532     4.177117  0.018850726 
   35300    1.2743087  -0.50937635    2.8766148    4.2189683   0.01261038 
   35400    1.5444738  -0.54562119    2.6934899    4.3921823 0.0053418264 
   35500    1.4899624  -0.55055855    2.6728354    4.2873785 -0.001141945 
   35600    1.3672268  -0.53962519    2.8343479    4.2814742 -0.0046186586 
   35700    1.3899007  -0.67211803    2.7476022    4.0951837 -0.005956039 
   35800    1.1896939  -0.43499558    2.7763472    4.0701256 0.0076582162 
   35900    1.2294392  -0.49145646    2.7422965    4.0373689  0.009335317 
   36000    1.4647347  -0.51125245     2.549597    4.1667872  0.017127696 
   36100    1.2950142  -0.63823796    2.9419421    4.1855216 -0.010391259 
   36200    1.2248523  -0.34875846    2.7880522    4.2191571 0.0057676354 
   36300    1.1982879  -0.31014351    2.7758038    4.2069224 0.0017711204 
   36400    1.1964364  -0.18645616    2.6803729    4.2324884  0.013185451 
   36500    1.2047214  -0.42801875    2.8895314    4.2121234 0.0058738278 
   36600    1.1913087  -0.34469174    2.7365178    4.1229466 -0.0084840557 
   36700    1.2489337 -0.025896614    2.4278268     4.216787  0.013781471 
   36800    1.1552309  -0.28324548    2.7360448    4.1314942 -0.0038846672 
   36900    1.1685663  -0.26507648    2.7760271    4.2090236 -0.0028419665 
   37000    1.2834918  -0.24215634    2.5370725    4.1599903 0.0010851616 
   37100    1.2791599  -0.33906753    2.6107471    4.1304587 -0.0080997142 
   37200    1.1347403  -0.38374658    2.8513169    4.1164899 -0.0094157211 
   37300    1.0227798  -0.22633892    2.7354306    3.9953186 -0.0067933507 
   37400    1.1417316  -0.10000201    2.4457069    4.0047837  0.010069862 
   37500    1.1193363  -0.10541795    2.4647149    3.9858325  0.012505589 
   37600    1.0422828  -0.32111803    2.7828088    3.9762579 -0.0081735687 
   37700    1.4404404  -0.50011998    2.6044784    4.1974983 0.0010673092 
   37800    1.2471939  -0.53881305    2.9534514     4.226967 -0.0054517354 
   37900    1.2170897  -0.37781114    2.8085794    4.1993517 0.0083015354 
   38000    1.1834299  -0.42337776    2.8237681     4.120062 -0.012446331 
   38100    1.0048546  -0.35199768    2.8383917    3.9465734 -0.013614087 
   38200    1.1410022  -0.15127889    2.4343182    3.9410581  0.010519235 
   38300   0.96439308   -0.2821294    2.7534561    3.8727104 -0.0014707272 
   38400    1.2429287  -0.39107629    2.5073757    3.9224301  0.018195539 
   38500     1.365436  -0.72573737    2.9056401     4.164052  -0.00774929 
   38600    1.4645308  -0.55030669    2.5339185    4.1117581  0.016785592 
   38700    1.3201437   -0.5532582    2.7408143    4.1058899 -0.0018257332 
   38800    1.2876034  -0.42385766    2.6841781    4.1313692 0.0031504975 
   38900    1.3420716  -0.37877461    2.5034784    4.0749016   0.02333079 
   39000    1.5144222  -0.66445992     2.715821    4.2520057 -0.0053905415 
   39100    1.3158068  -0.29706773    2.6576853    4.2726493 0.0013997363 
   39200    1.2315624  -0.12239548    2.5281272    4.1953458  0.027300587 
   39300    1.1792655  -0.42419145    3.0367456    4.3261744 -0.013104548 
   39400    1.5514914  -0.29058801     2.462486    4.4264089  0.012756387 
   39500     1.132324  -0.32777378    3.0384515    4.3560861 -0.017023017 
   39600    1.3632724  -0.29501944    2.6505174    4.3365031 0.0056825188 
   39700    1.2053843  -0.50717372    3.0484196      4.29282 -0.0042385907 
   39800    1.4715153  -0.50305911     2.668581    4.3038175  0.010080336 
   39900    1.1942506  -0.19583006    2.7230389    4.2626043  0.025725269 
   40000    1.3198553  -0.21379416    2.6327363    4.3368569  0.014519513 
   40100    1.1424996  -0.35309542    3.0287805    4.3358799 -0.017227481 
   40200    1.3453589  0.021248543    2.3361002    4.3123233  0.036492949 
   40300    1.1769371  -0.20621705    2.8783667    4.3823865 -0.0075947939 
   40400    1.2094587 -0.032597575    2.6103706    4.3352677 0.0012073964 
   40500    1.1735179  -0.20333439    2.8785618    4.3804957 0.00071498769 
   40600    1.2357076  -0.11407123    2.6706923    4.3522586 0.0037719127 
   40700    1.2469396  -0.13779293    2.6236855    4.2978517 0.0016462212 
   40800    1.2975118  -0.25845334    2.7956248    4.4226184 0.0032813479 
   40900     1.410895  -0.53299575    2.7689543    4.2861654 0.00050015409 
   41000    1.4076233  -0.19934183    2.3801707    4.2262815  0.026620622 
   41100    1.1988977  -0.60019186    3.1925403    4.3344966 -0.023810131 
   41200    1.5554218  -0.21450712      2.30643    4.3521452  0.030528953 
   41300    1.1475124  -0.73719633    3.2939154    4.2241979 -0.025814464 
   41400    1.3753926 -0.082425525    2.3799583    4.2961502  0.031540668 
   41500    1.2373748  -0.18927491    2.6543322    4.2631176  0.013325862 
   41600    1.2142303  -0.20159523    2.6465169    4.2093501 0.0032068229 
   41700    1.2234245  -0.37707793     2.827468    4.2281788 -0.008078183 
   41800    1.4023428  -0.48008897    2.6917164    4.2494067 0.0019532102 
   41900     1.331649  -0.56011295    2.9145651    4.2895047  0.001748937 
   42000    1.5199058  -0.49308204    2.5773853    4.2929164  0.011366123 
   42100    1.2768838  -0.37678155    2.7503439    4.2290342 0.0071286188 
   42200    1.4682967  -0.40895858    2.5597195    4.2843797 0.00083572522 
   42300    1.1240644  -0.38101535    2.9459088    4.1982995 -0.0074562035 
   42400    1.3691153  -0.14354571    2.5096951    4.3556451  0.016215453 
   42500    1.2689504  -0.16515669    2.7010106    4.3797974 -0.0029245731 
   42600    1.1316729  -0.21877803    3.0647731    4.4904573  -0.02016541 
   42700    1.3400824 -0.020130158    2.5579758    4.4851528 0.0077070876 
   42800    1.3756473  -0.13491442    2.7705047    4.6345778 0.0049598889 
   42900    1.3759946  -0.21656775    2.8295624    4.6124869 -0.0009666857 
   43000    1.3515253  -0.22089058    2.9445661    4.6876107   0.01422679 
   43100    1.5790183  -0.16556848    2.5966953    4.7256378 0.0086491898 
   43200    1.5242548  -0.14333228    2.5214906    4.5930911   0.01149652 
   43300    1.4603159  -0.23272697    2.6554647    4.5447593 0.0064422953 
   43400     1.517537   -0.2483867    2.5909126    4.5476968  0.010102105 
   43500     1.431024  -0.47877465    2.9339879      4.53467 -0.0035088676 
   43600    1.4198187  -0.36349393    2.7433644    4.4430445  0.007314193 
   43700    1.3835688  -0.34765929    2.7725787    4.4354178 0.0077452512 
   43800    1.3130134  -0.36178586    2.9987239    4.5449107 -0.010280265 
   43900    1.3844006 -0.018749152    2.4907032    4.4836611  0.023186154 
   44000    1.3816083  -0.55214502    3.0302742    4.4857788 -0.0096847745 
   44100    1.3836857  -0.16488064    2.5516775    4.3974651  0.027053144 
   44200    1.3874244  -0.19902607    2.7819553    4.5990303 0.0096771115 
   44300    1.3489532 -0.058033787    2.5477822     4.449946  0.016763983 
   44400    1.1158487  -0.17180784    3.0312283    4.4808881 -0.0081572227 
   44500    1.3368536  -0.23305005    2.8365828    4.5461481 -0.0027866615 
   44600     1.136479 -0.098777512    2.9137284    4.4663969  0.015799162 
   44700     1.626323  -0.33376232    2.6384271    4.6679154  0.022713029 
   44800    1.2825131  -0.32417445    3.0116982    4.5511756 -0.0013429681 
   44900    1.6454405  -0.23218739    2.6503467      4.80919  0.001566304 
   45000    1.5802218  -0.17674457    2.7921719    4.9116871 0.0078121382 
   45100    1.6936087  -0.37296897    2.8919492    4.9800054 -0.0045490444 
   45200    1.5325104  -0.18288567    2.9442941    4.9883376  0.013040332 
   45300    1.6502503 -0.084525734    2.5821764    4.8956707 0.0082855718 
   45400    1.6064224  -0.29335837     2.751856    4.7928303 0.0044247582 
   45500    1.1298141  -0.34057181    3.3008284    4.6020177 -0.011384789 
   45600     1.277195 -0.080416573    2.7886924    4.5641997 0.0061578804 
   45700    1.5173429   0.09603552    2.3555412    4.6564655  0.029260934 
   45800    1.3861382  -0.36921781    3.2012053    4.8462195 -0.013965642 
   45900    1.5202429  -0.41238579    2.8551445    4.6518616 0.00086560525 
   46000    1.4421347  -0.38471274    2.8187261    4.5296154  0.013471997 
   46100    1.4617669  -0.29247431    2.5483073    4.3799631 0.0098090583 
   46200    1.3112834  -0.70426591    3.1032509    4.3044437 -0.016133558 
   46300    1.2871332  -0.47972695    2.8107383    4.2013768 0.0052692993 
   46400    1.2715177    -0.342501    2.6771962    4.1823693  0.020297306 
   46500     1.190673  -0.57508085    3.1213661    4.2764819 -0.0094124016 
   46600    1.2111069  -0.36849574    2.9856158    4.3770098 0.0064771893 
   46700    1.1031119  -0.33751046    3.0975662    4.3630152 0.0050725595 
   46800    1.1803869  -0.15524969    2.7210863    4.2810864 0.0061765356 
   46900    1.1600709 -0.0064302016    2.6161178    4.2954156  0.003971412 
   47000     1.097349  -0.25657731    3.0352472    4.3732551 -0.0062269214 
   47100    1.3627285  -0.51839426    2.8718049    4.3336255 0.0064103993 
   47200    1.5689971  -0.61098709    2.7503998    4.4193617  0.017815954 
   47300    1.2270141   -0.5242924     3.016896    4.2756084 -0.010110193 
   47400    1.2201506  -0.22500489    2.7601112    4.3081376 -0.00033693361 
   47500    1.3364785  -0.18104423    2.6377274    4.3987534 0.0062981647 
   47600      1.42335  -0.49730946    2.8448852    4.4158813 -0.011904667 
   47700     1.294277  -0.28853331    2.9066591     4.498872 -0.0022277372 
   47800    1.2792841  0.073654109    2.5526249    4.4852387  0.014856404 
   47900    1.1307107   0.20436438    2.4698174    4.3172458  0.011593508 
   48000    1.0795452  -0.19546111    2.9911014    4.3643545 -0.014798009 
   48100     1.169728  -0.38186988    3.0299356    4.3478267  0.009893174 
   48200    1.5445586   -0.4337952    2.6106971    4.4213387 0.0081164485 
   48300    1.3115585  -0.22590554    2.7580317    4.4379846 -0.0050618649 
   48400    1.4545047  -0.16271987    2.5628013    4.5136585  0.018060996 
   48500     1.522859   -0.3728587    2.7351532     4.575199 0.0013743048 
   48600    1.4088546  -0.61441154    2.9554915    4.3883218 0.0025761837 
   48700    1.4413849   -0.6271051    2.8842352    4.3516425 -0.0044694753 
   48800    1.4196624  -0.59237399    2.8062251     4.276798 -0.005188693 
   48900    1.4326155  -0.42619839    2.5865637    4.2421348   0.00161315 
   49000    1.1629508  -0.31365798     2.900916     4.277171 -0.018266654 
   49100    1.3568817  -0.13909337    2.5146597    4.3472851  0.016251628 
   49200    1.2724297  -0.19965517    2.7428068    4.3921511 -0.0068974949 
   49300    1.0447043   0.19356816    2.6413203    4.3529744 0.00094664088 
   49400    1.1508449   0.30109255    2.4053344    4.3787484  0.013667639 
   49500    1.0285265  0.060665277    2.8231749    4.3784178 -0.017269716 
   49600     1.240982 -0.034633221    2.6052515    4.3739202 0.0026311458 
   49700    1.2542834  -0.15623564    2.7872333    4.4536283 -0.0022933385 
   49800    1.3945502  -0.10940087    2.5760156    4.4930705     0.010024 
   49900    1.2102423  -0.21064355    2.8850141     4.433004 -0.013237877 
   50000    1.2683462   0.17463437    2.3812154    4.3989154  0.040684648 
Loop time of 5.46286 on 1 procs for 50000 steps with 32 atoms

Pair  time (%) = 2.89994 (53.0846)
Bond  time (%) = 0.0279982 (0.512519)
Kspce time (%) = 1.50864 (27.6163)
Neigh time (%) = 0.323636 (5.9243)
Comm  time (%) = 0.445245 (8.15039)
Outpt time (%) = 0.0317545 (0.581279)
Other time (%) = 0.225649 (4.1306)

Nlocal:    32 ave 32 max 32 min
Histogram: 1 0 0 0 0 0 0 0 0 0
Nghost:    778 ave 778 max 778 min
Histogram: 1 0 0 0 0 0 0 0 0 0
Neighs:    1861 ave 1861 max 1861 min
Histogram: 1 0 0 0 0 0 0 0 0 0

Total # of neighbors = 1861
Ave neighs/atom = 58.1562
Ave special neighs/atom = 0.9375
Neighbor list builds = 3339
Dangerous builds = 0

# Run without indenter
# unfix           4
# run		30000
